p cnf        618       2971
19 20 21 22 23 0
-19 44 0
-20 45 0
-44 45 0
-20 -44 0
-21 46 0
-45 46 0
-21 -45 0
-22 47 0
-46 47 0
-22 -46 0
-23 -47 0
24 25 26 27 28 0
-24 48 0
-25 49 0
-48 49 0
-25 -48 0
-26 50 0
-49 50 0
-26 -49 0
-27 51 0
-50 51 0
-27 -50 0
-28 -51 0
29 30 31 32 33 0
-29 52 0
-30 53 0
-52 53 0
-30 -52 0
-31 54 0
-53 54 0
-31 -53 0
-32 55 0
-54 55 0
-32 -54 0
-33 -55 0
34 35 36 37 38 0
-34 56 0
-35 57 0
-56 57 0
-35 -56 0
-36 58 0
-57 58 0
-36 -57 0
-37 59 0
-58 59 0
-37 -58 0
-38 -59 0
39 40 41 42 43 0
-39 60 0
-40 61 0
-60 61 0
-40 -60 0
-41 62 0
-61 62 0
-41 -61 0
-42 63 0
-62 63 0
-42 -62 0
-43 -63 0
19 24 29 34 39 0
-19 64 0
-24 65 0
-64 65 0
-24 -64 0
-29 66 0
-65 66 0
-29 -65 0
-34 67 0
-66 67 0
-34 -66 0
-39 -67 0
20 25 30 35 40 0
-20 68 0
-25 69 0
-68 69 0
-25 -68 0
-30 70 0
-69 70 0
-30 -69 0
-35 71 0
-70 71 0
-35 -70 0
-40 -71 0
21 26 31 36 41 0
-21 72 0
-26 73 0
-72 73 0
-26 -72 0
-31 74 0
-73 74 0
-31 -73 0
-36 75 0
-74 75 0
-36 -74 0
-41 -75 0
22 27 32 37 42 0
-22 76 0
-27 77 0
-76 77 0
-27 -76 0
-32 78 0
-77 78 0
-32 -77 0
-37 79 0
-78 79 0
-37 -78 0
-42 -79 0
23 28 33 38 43 0
-23 80 0
-28 81 0
-80 81 0
-28 -80 0
-33 82 0
-81 82 0
-33 -81 0
-38 83 0
-82 83 0
-38 -82 0
-43 -83 0
84 85 86 87 88 0
-84 104 0
-85 105 0
-104 105 0
-85 -104 0
-86 106 0
-105 106 0
-86 -105 0
-87 107 0
-106 107 0
-87 -106 0
-88 -107 0
89 90 91 92 93 0
-89 108 0
-90 109 0
-108 109 0
-90 -108 0
-91 110 0
-109 110 0
-91 -109 0
-92 111 0
-110 111 0
-92 -110 0
-93 -111 0
94 95 96 97 98 0
-94 112 0
-95 113 0
-112 113 0
-95 -112 0
-96 114 0
-113 114 0
-96 -113 0
-97 115 0
-114 115 0
-97 -114 0
-98 -115 0
99 100 101 102 103 0
-99 116 0
-100 117 0
-116 117 0
-100 -116 0
-101 118 0
-117 118 0
-101 -117 0
-102 119 0
-118 119 0
-102 -118 0
-103 -119 0
84 89 94 99 19 0
-84 120 0
-89 121 0
-120 121 0
-89 -120 0
-94 122 0
-121 122 0
-94 -121 0
-99 123 0
-122 123 0
-99 -122 0
-19 -123 0
85 90 95 100 20 0
-85 124 0
-90 125 0
-124 125 0
-90 -124 0
-95 126 0
-125 126 0
-95 -125 0
-100 127 0
-126 127 0
-100 -126 0
-20 -127 0
86 91 96 101 21 0
-86 128 0
-91 129 0
-128 129 0
-91 -128 0
-96 130 0
-129 130 0
-96 -129 0
-101 131 0
-130 131 0
-101 -130 0
-21 -131 0
87 92 97 102 22 0
-87 132 0
-92 133 0
-132 133 0
-92 -132 0
-97 134 0
-133 134 0
-97 -133 0
-102 135 0
-134 135 0
-102 -134 0
-22 -135 0
88 93 98 103 23 0
-88 136 0
-93 137 0
-136 137 0
-93 -136 0
-98 138 0
-137 138 0
-98 -137 0
-103 139 0
-138 139 0
-103 -138 0
-23 -139 0
-84 -90 -4 0
-84 -91 -4 10 0
-84 -91 4 -10 0
-84 -92 -4 11 0
-84 -92 4 -11 0
-84 -93 -4 12 0
-84 -93 4 -12 0
-85 -89 -4 0
-85 -91 -4 13 0
-85 -91 4 -13 0
-85 -92 -4 14 0
-85 -92 4 -14 0
-85 -93 -4 15 0
-85 -93 4 -15 0
-86 -89 -4 10 0
-86 -89 4 -10 0
-86 -90 -4 13 0
-86 -90 4 -13 0
-86 -92 -4 16 0
-86 -92 4 -16 0
-86 -93 -4 17 0
-86 -93 4 -17 0
-87 -89 -4 11 0
-87 -89 4 -11 0
-87 -90 -4 14 0
-87 -90 4 -14 0
-87 -91 -4 16 0
-87 -91 4 -16 0
-87 -93 -4 18 0
-87 -93 4 -18 0
-88 -89 -4 12 0
-88 -89 4 -12 0
-88 -90 -4 15 0
-88 -90 4 -15 0
-88 -91 -4 17 0
-88 -91 4 -17 0
-88 -92 -4 18 0
-88 -92 4 -18 0
-84 -95 -5 0
-84 -96 -5 10 0
-84 -96 5 -10 0
-84 -97 -5 11 0
-84 -97 5 -11 0
-84 -98 -5 12 0
-84 -98 5 -12 0
-85 -94 -5 0
-85 -96 -5 13 0
-85 -96 5 -13 0
-85 -97 -5 14 0
-85 -97 5 -14 0
-85 -98 -5 15 0
-85 -98 5 -15 0
-86 -94 -5 10 0
-86 -94 5 -10 0
-86 -95 -5 13 0
-86 -95 5 -13 0
-86 -97 -5 16 0
-86 -97 5 -16 0
-86 -98 -5 17 0
-86 -98 5 -17 0
-87 -94 -5 11 0
-87 -94 5 -11 0
-87 -95 -5 14 0
-87 -95 5 -14 0
-87 -96 -5 16 0
-87 -96 5 -16 0
-87 -98 -5 18 0
-87 -98 5 -18 0
-88 -94 -5 12 0
-88 -94 5 -12 0
-88 -95 -5 15 0
-88 -95 5 -15 0
-88 -96 -5 17 0
-88 -96 5 -17 0
-88 -97 -5 18 0
-88 -97 5 -18 0
-84 -100 -6 0
-84 -101 -6 10 0
-84 -101 6 -10 0
-84 -102 -6 11 0
-84 -102 6 -11 0
-84 -103 -6 12 0
-84 -103 6 -12 0
-85 -99 -6 0
-85 -101 -6 13 0
-85 -101 6 -13 0
-85 -102 -6 14 0
-85 -102 6 -14 0
-85 -103 -6 15 0
-85 -103 6 -15 0
-86 -99 -6 10 0
-86 -99 6 -10 0
-86 -100 -6 13 0
-86 -100 6 -13 0
-86 -102 -6 16 0
-86 -102 6 -16 0
-86 -103 -6 17 0
-86 -103 6 -17 0
-87 -99 -6 11 0
-87 -99 6 -11 0
-87 -100 -6 14 0
-87 -100 6 -14 0
-87 -101 -6 16 0
-87 -101 6 -16 0
-87 -103 -6 18 0
-87 -103 6 -18 0
-88 -99 -6 12 0
-88 -99 6 -12 0
-88 -100 -6 15 0
-88 -100 6 -15 0
-88 -101 -6 17 0
-88 -101 6 -17 0
-88 -102 -6 18 0
-88 -102 6 -18 0
-89 -95 -7 0
-89 -96 -7 10 0
-89 -96 7 -10 0
-89 -97 -7 11 0
-89 -97 7 -11 0
-89 -98 -7 12 0
-89 -98 7 -12 0
-90 -94 -7 0
-90 -96 -7 13 0
-90 -96 7 -13 0
-90 -97 -7 14 0
-90 -97 7 -14 0
-90 -98 -7 15 0
-90 -98 7 -15 0
-91 -94 -7 10 0
-91 -94 7 -10 0
-91 -95 -7 13 0
-91 -95 7 -13 0
-91 -97 -7 16 0
-91 -97 7 -16 0
-91 -98 -7 17 0
-91 -98 7 -17 0
-92 -94 -7 11 0
-92 -94 7 -11 0
-92 -95 -7 14 0
-92 -95 7 -14 0
-92 -96 -7 16 0
-92 -96 7 -16 0
-92 -98 -7 18 0
-92 -98 7 -18 0
-93 -94 -7 12 0
-93 -94 7 -12 0
-93 -95 -7 15 0
-93 -95 7 -15 0
-93 -96 -7 17 0
-93 -96 7 -17 0
-93 -97 -7 18 0
-93 -97 7 -18 0
-89 -100 -8 0
-89 -101 -8 10 0
-89 -101 8 -10 0
-89 -102 -8 11 0
-89 -102 8 -11 0
-89 -103 -8 12 0
-89 -103 8 -12 0
-90 -99 -8 0
-90 -101 -8 13 0
-90 -101 8 -13 0
-90 -102 -8 14 0
-90 -102 8 -14 0
-90 -103 -8 15 0
-90 -103 8 -15 0
-91 -99 -8 10 0
-91 -99 8 -10 0
-91 -100 -8 13 0
-91 -100 8 -13 0
-91 -102 -8 16 0
-91 -102 8 -16 0
-91 -103 -8 17 0
-91 -103 8 -17 0
-92 -99 -8 11 0
-92 -99 8 -11 0
-92 -100 -8 14 0
-92 -100 8 -14 0
-92 -101 -8 16 0
-92 -101 8 -16 0
-92 -103 -8 18 0
-92 -103 8 -18 0
-93 -99 -8 12 0
-93 -99 8 -12 0
-93 -100 -8 15 0
-93 -100 8 -15 0
-93 -101 -8 17 0
-93 -101 8 -17 0
-93 -102 -8 18 0
-93 -102 8 -18 0
-94 -100 -9 0
-94 -101 -9 10 0
-94 -101 9 -10 0
-94 -102 -9 11 0
-94 -102 9 -11 0
-94 -103 -9 12 0
-94 -103 9 -12 0
-95 -99 -9 0
-95 -101 -9 13 0
-95 -101 9 -13 0
-95 -102 -9 14 0
-95 -102 9 -14 0
-95 -103 -9 15 0
-95 -103 9 -15 0
-96 -99 -9 10 0
-96 -99 9 -10 0
-96 -100 -9 13 0
-96 -100 9 -13 0
-96 -102 -9 16 0
-96 -102 9 -16 0
-96 -103 -9 17 0
-96 -103 9 -17 0
-97 -99 -9 11 0
-97 -99 9 -11 0
-97 -100 -9 14 0
-97 -100 9 -14 0
-97 -101 -9 16 0
-97 -101 9 -16 0
-97 -103 -9 18 0
-97 -103 9 -18 0
-98 -99 -9 12 0
-98 -99 9 -12 0
-98 -100 -9 15 0
-98 -100 9 -15 0
-98 -101 -9 17 0
-98 -101 9 -17 0
-98 -102 -9 18 0
-98 -102 9 -18 0
140 141 142 143 144 0
-140 160 0
-141 161 0
-160 161 0
-141 -160 0
-142 162 0
-161 162 0
-142 -161 0
-143 163 0
-162 163 0
-143 -162 0
-144 -163 0
145 146 147 148 149 0
-145 164 0
-146 165 0
-164 165 0
-146 -164 0
-147 166 0
-165 166 0
-147 -165 0
-148 167 0
-166 167 0
-148 -166 0
-149 -167 0
150 151 152 153 154 0
-150 168 0
-151 169 0
-168 169 0
-151 -168 0
-152 170 0
-169 170 0
-152 -169 0
-153 171 0
-170 171 0
-153 -170 0
-154 -171 0
155 156 157 158 159 0
-155 172 0
-156 173 0
-172 173 0
-156 -172 0
-157 174 0
-173 174 0
-157 -173 0
-158 175 0
-174 175 0
-158 -174 0
-159 -175 0
140 145 150 155 24 0
-140 176 0
-145 177 0
-176 177 0
-145 -176 0
-150 178 0
-177 178 0
-150 -177 0
-155 179 0
-178 179 0
-155 -178 0
-24 -179 0
141 146 151 156 25 0
-141 180 0
-146 181 0
-180 181 0
-146 -180 0
-151 182 0
-181 182 0
-151 -181 0
-156 183 0
-182 183 0
-156 -182 0
-25 -183 0
142 147 152 157 26 0
-142 184 0
-147 185 0
-184 185 0
-147 -184 0
-152 186 0
-185 186 0
-152 -185 0
-157 187 0
-186 187 0
-157 -186 0
-26 -187 0
143 148 153 158 27 0
-143 188 0
-148 189 0
-188 189 0
-148 -188 0
-153 190 0
-189 190 0
-153 -189 0
-158 191 0
-190 191 0
-158 -190 0
-27 -191 0
144 149 154 159 28 0
-144 192 0
-149 193 0
-192 193 0
-149 -192 0
-154 194 0
-193 194 0
-154 -193 0
-159 195 0
-194 195 0
-159 -194 0
-28 -195 0
-140 -146 -1 0
-140 -147 -1 10 0
-140 -147 1 -10 0
-140 -148 -1 11 0
-140 -148 1 -11 0
-140 -149 -1 12 0
-140 -149 1 -12 0
-141 -145 -1 0
-141 -147 -1 13 0
-141 -147 1 -13 0
-141 -148 -1 14 0
-141 -148 1 -14 0
-141 -149 -1 15 0
-141 -149 1 -15 0
-142 -145 -1 10 0
-142 -145 1 -10 0
-142 -146 -1 13 0
-142 -146 1 -13 0
-142 -148 -1 16 0
-142 -148 1 -16 0
-142 -149 -1 17 0
-142 -149 1 -17 0
-143 -145 -1 11 0
-143 -145 1 -11 0
-143 -146 -1 14 0
-143 -146 1 -14 0
-143 -147 -1 16 0
-143 -147 1 -16 0
-143 -149 -1 18 0
-143 -149 1 -18 0
-144 -145 -1 12 0
-144 -145 1 -12 0
-144 -146 -1 15 0
-144 -146 1 -15 0
-144 -147 -1 17 0
-144 -147 1 -17 0
-144 -148 -1 18 0
-144 -148 1 -18 0
-140 -151 -2 0
-140 -152 -2 10 0
-140 -152 2 -10 0
-140 -153 -2 11 0
-140 -153 2 -11 0
-140 -154 -2 12 0
-140 -154 2 -12 0
-141 -150 -2 0
-141 -152 -2 13 0
-141 -152 2 -13 0
-141 -153 -2 14 0
-141 -153 2 -14 0
-141 -154 -2 15 0
-141 -154 2 -15 0
-142 -150 -2 10 0
-142 -150 2 -10 0
-142 -151 -2 13 0
-142 -151 2 -13 0
-142 -153 -2 16 0
-142 -153 2 -16 0
-142 -154 -2 17 0
-142 -154 2 -17 0
-143 -150 -2 11 0
-143 -150 2 -11 0
-143 -151 -2 14 0
-143 -151 2 -14 0
-143 -152 -2 16 0
-143 -152 2 -16 0
-143 -154 -2 18 0
-143 -154 2 -18 0
-144 -150 -2 12 0
-144 -150 2 -12 0
-144 -151 -2 15 0
-144 -151 2 -15 0
-144 -152 -2 17 0
-144 -152 2 -17 0
-144 -153 -2 18 0
-144 -153 2 -18 0
-140 -156 -3 0
-140 -157 -3 10 0
-140 -157 3 -10 0
-140 -158 -3 11 0
-140 -158 3 -11 0
-140 -159 -3 12 0
-140 -159 3 -12 0
-141 -155 -3 0
-141 -157 -3 13 0
-141 -157 3 -13 0
-141 -158 -3 14 0
-141 -158 3 -14 0
-141 -159 -3 15 0
-141 -159 3 -15 0
-142 -155 -3 10 0
-142 -155 3 -10 0
-142 -156 -3 13 0
-142 -156 3 -13 0
-142 -158 -3 16 0
-142 -158 3 -16 0
-142 -159 -3 17 0
-142 -159 3 -17 0
-143 -155 -3 11 0
-143 -155 3 -11 0
-143 -156 -3 14 0
-143 -156 3 -14 0
-143 -157 -3 16 0
-143 -157 3 -16 0
-143 -159 -3 18 0
-143 -159 3 -18 0
-144 -155 -3 12 0
-144 -155 3 -12 0
-144 -156 -3 15 0
-144 -156 3 -15 0
-144 -157 -3 17 0
-144 -157 3 -17 0
-144 -158 -3 18 0
-144 -158 3 -18 0
-145 -151 -7 0
-145 -152 -7 10 0
-145 -152 7 -10 0
-145 -153 -7 11 0
-145 -153 7 -11 0
-145 -154 -7 12 0
-145 -154 7 -12 0
-146 -150 -7 0
-146 -152 -7 13 0
-146 -152 7 -13 0
-146 -153 -7 14 0
-146 -153 7 -14 0
-146 -154 -7 15 0
-146 -154 7 -15 0
-147 -150 -7 10 0
-147 -150 7 -10 0
-147 -151 -7 13 0
-147 -151 7 -13 0
-147 -153 -7 16 0
-147 -153 7 -16 0
-147 -154 -7 17 0
-147 -154 7 -17 0
-148 -150 -7 11 0
-148 -150 7 -11 0
-148 -151 -7 14 0
-148 -151 7 -14 0
-148 -152 -7 16 0
-148 -152 7 -16 0
-148 -154 -7 18 0
-148 -154 7 -18 0
-149 -150 -7 12 0
-149 -150 7 -12 0
-149 -151 -7 15 0
-149 -151 7 -15 0
-149 -152 -7 17 0
-149 -152 7 -17 0
-149 -153 -7 18 0
-149 -153 7 -18 0
-145 -156 -8 0
-145 -157 -8 10 0
-145 -157 8 -10 0
-145 -158 -8 11 0
-145 -158 8 -11 0
-145 -159 -8 12 0
-145 -159 8 -12 0
-146 -155 -8 0
-146 -157 -8 13 0
-146 -157 8 -13 0
-146 -158 -8 14 0
-146 -158 8 -14 0
-146 -159 -8 15 0
-146 -159 8 -15 0
-147 -155 -8 10 0
-147 -155 8 -10 0
-147 -156 -8 13 0
-147 -156 8 -13 0
-147 -158 -8 16 0
-147 -158 8 -16 0
-147 -159 -8 17 0
-147 -159 8 -17 0
-148 -155 -8 11 0
-148 -155 8 -11 0
-148 -156 -8 14 0
-148 -156 8 -14 0
-148 -157 -8 16 0
-148 -157 8 -16 0
-148 -159 -8 18 0
-148 -159 8 -18 0
-149 -155 -8 12 0
-149 -155 8 -12 0
-149 -156 -8 15 0
-149 -156 8 -15 0
-149 -157 -8 17 0
-149 -157 8 -17 0
-149 -158 -8 18 0
-149 -158 8 -18 0
-150 -156 -9 0
-150 -157 -9 10 0
-150 -157 9 -10 0
-150 -158 -9 11 0
-150 -158 9 -11 0
-150 -159 -9 12 0
-150 -159 9 -12 0
-151 -155 -9 0
-151 -157 -9 13 0
-151 -157 9 -13 0
-151 -158 -9 14 0
-151 -158 9 -14 0
-151 -159 -9 15 0
-151 -159 9 -15 0
-152 -155 -9 10 0
-152 -155 9 -10 0
-152 -156 -9 13 0
-152 -156 9 -13 0
-152 -158 -9 16 0
-152 -158 9 -16 0
-152 -159 -9 17 0
-152 -159 9 -17 0
-153 -155 -9 11 0
-153 -155 9 -11 0
-153 -156 -9 14 0
-153 -156 9 -14 0
-153 -157 -9 16 0
-153 -157 9 -16 0
-153 -159 -9 18 0
-153 -159 9 -18 0
-154 -155 -9 12 0
-154 -155 9 -12 0
-154 -156 -9 15 0
-154 -156 9 -15 0
-154 -157 -9 17 0
-154 -157 9 -17 0
-154 -158 -9 18 0
-154 -158 9 -18 0
196 197 198 199 200 0
-196 216 0
-197 217 0
-216 217 0
-197 -216 0
-198 218 0
-217 218 0
-198 -217 0
-199 219 0
-218 219 0
-199 -218 0
-200 -219 0
201 202 203 204 205 0
-201 220 0
-202 221 0
-220 221 0
-202 -220 0
-203 222 0
-221 222 0
-203 -221 0
-204 223 0
-222 223 0
-204 -222 0
-205 -223 0
206 207 208 209 210 0
-206 224 0
-207 225 0
-224 225 0
-207 -224 0
-208 226 0
-225 226 0
-208 -225 0
-209 227 0
-226 227 0
-209 -226 0
-210 -227 0
211 212 213 214 215 0
-211 228 0
-212 229 0
-228 229 0
-212 -228 0
-213 230 0
-229 230 0
-213 -229 0
-214 231 0
-230 231 0
-214 -230 0
-215 -231 0
196 201 206 211 29 0
-196 232 0
-201 233 0
-232 233 0
-201 -232 0
-206 234 0
-233 234 0
-206 -233 0
-211 235 0
-234 235 0
-211 -234 0
-29 -235 0
197 202 207 212 30 0
-197 236 0
-202 237 0
-236 237 0
-202 -236 0
-207 238 0
-237 238 0
-207 -237 0
-212 239 0
-238 239 0
-212 -238 0
-30 -239 0
198 203 208 213 31 0
-198 240 0
-203 241 0
-240 241 0
-203 -240 0
-208 242 0
-241 242 0
-208 -241 0
-213 243 0
-242 243 0
-213 -242 0
-31 -243 0
199 204 209 214 32 0
-199 244 0
-204 245 0
-244 245 0
-204 -244 0
-209 246 0
-245 246 0
-209 -245 0
-214 247 0
-246 247 0
-214 -246 0
-32 -247 0
200 205 210 215 33 0
-200 248 0
-205 249 0
-248 249 0
-205 -248 0
-210 250 0
-249 250 0
-210 -249 0
-215 251 0
-250 251 0
-215 -250 0
-33 -251 0
-196 -203 -10 0
-196 -204 -11 0
-196 -205 -12 0
-197 -203 -13 0
-197 -204 -14 0
-197 -205 -15 0
-198 -201 -10 0
-198 -202 -13 0
-198 -204 -16 0
-198 -205 -17 0
-199 -201 -11 0
-199 -202 -14 0
-199 -203 -16 0
-199 -205 -18 0
-200 -201 -12 0
-200 -202 -15 0
-200 -203 -17 0
-200 -204 -18 0
-196 -207 -2 0
-196 -208 -2 10 0
-196 -208 2 -10 0
-196 -209 -2 11 0
-196 -209 2 -11 0
-196 -210 -2 12 0
-196 -210 2 -12 0
-197 -206 -2 0
-197 -208 -2 13 0
-197 -208 2 -13 0
-197 -209 -2 14 0
-197 -209 2 -14 0
-197 -210 -2 15 0
-197 -210 2 -15 0
-198 -206 -2 10 0
-198 -206 2 -10 0
-198 -207 -2 13 0
-198 -207 2 -13 0
-198 -209 -2 16 0
-198 -209 2 -16 0
-198 -210 -2 17 0
-198 -210 2 -17 0
-199 -206 -2 11 0
-199 -206 2 -11 0
-199 -207 -2 14 0
-199 -207 2 -14 0
-199 -208 -2 16 0
-199 -208 2 -16 0
-199 -210 -2 18 0
-199 -210 2 -18 0
-200 -206 -2 12 0
-200 -206 2 -12 0
-200 -207 -2 15 0
-200 -207 2 -15 0
-200 -208 -2 17 0
-200 -208 2 -17 0
-200 -209 -2 18 0
-200 -209 2 -18 0
-196 -212 -3 0
-196 -213 -3 10 0
-196 -213 3 -10 0
-196 -214 -3 11 0
-196 -214 3 -11 0
-196 -215 -3 12 0
-196 -215 3 -12 0
-197 -211 -3 0
-197 -213 -3 13 0
-197 -213 3 -13 0
-197 -214 -3 14 0
-197 -214 3 -14 0
-197 -215 -3 15 0
-197 -215 3 -15 0
-198 -211 -3 10 0
-198 -211 3 -10 0
-198 -212 -3 13 0
-198 -212 3 -13 0
-198 -214 -3 16 0
-198 -214 3 -16 0
-198 -215 -3 17 0
-198 -215 3 -17 0
-199 -211 -3 11 0
-199 -211 3 -11 0
-199 -212 -3 14 0
-199 -212 3 -14 0
-199 -213 -3 16 0
-199 -213 3 -16 0
-199 -215 -3 18 0
-199 -215 3 -18 0
-200 -211 -3 12 0
-200 -211 3 -12 0
-200 -212 -3 15 0
-200 -212 3 -15 0
-200 -213 -3 17 0
-200 -213 3 -17 0
-200 -214 -3 18 0
-200 -214 3 -18 0
-201 -207 -5 0
-201 -208 -5 10 0
-201 -208 5 -10 0
-201 -209 -5 11 0
-201 -209 5 -11 0
-201 -210 -5 12 0
-201 -210 5 -12 0
-202 -206 -5 0
-202 -208 -5 13 0
-202 -208 5 -13 0
-202 -209 -5 14 0
-202 -209 5 -14 0
-202 -210 -5 15 0
-202 -210 5 -15 0
-203 -206 -5 10 0
-203 -206 5 -10 0
-203 -207 -5 13 0
-203 -207 5 -13 0
-203 -209 -5 16 0
-203 -209 5 -16 0
-203 -210 -5 17 0
-203 -210 5 -17 0
-204 -206 -5 11 0
-204 -206 5 -11 0
-204 -207 -5 14 0
-204 -207 5 -14 0
-204 -208 -5 16 0
-204 -208 5 -16 0
-204 -210 -5 18 0
-204 -210 5 -18 0
-205 -206 -5 12 0
-205 -206 5 -12 0
-205 -207 -5 15 0
-205 -207 5 -15 0
-205 -208 -5 17 0
-205 -208 5 -17 0
-205 -209 -5 18 0
-205 -209 5 -18 0
-201 -212 -6 0
-201 -213 -6 10 0
-201 -213 6 -10 0
-201 -214 -6 11 0
-201 -214 6 -11 0
-201 -215 -6 12 0
-201 -215 6 -12 0
-202 -211 -6 0
-202 -213 -6 13 0
-202 -213 6 -13 0
-202 -214 -6 14 0
-202 -214 6 -14 0
-202 -215 -6 15 0
-202 -215 6 -15 0
-203 -211 -6 10 0
-203 -211 6 -10 0
-203 -212 -6 13 0
-203 -212 6 -13 0
-203 -214 -6 16 0
-203 -214 6 -16 0
-203 -215 -6 17 0
-203 -215 6 -17 0
-204 -211 -6 11 0
-204 -211 6 -11 0
-204 -212 -6 14 0
-204 -212 6 -14 0
-204 -213 -6 16 0
-204 -213 6 -16 0
-204 -215 -6 18 0
-204 -215 6 -18 0
-205 -211 -6 12 0
-205 -211 6 -12 0
-205 -212 -6 15 0
-205 -212 6 -15 0
-205 -213 -6 17 0
-205 -213 6 -17 0
-205 -214 -6 18 0
-205 -214 6 -18 0
-206 -212 -9 0
-206 -213 -9 10 0
-206 -213 9 -10 0
-206 -214 -9 11 0
-206 -214 9 -11 0
-206 -215 -9 12 0
-206 -215 9 -12 0
-207 -211 -9 0
-207 -213 -9 13 0
-207 -213 9 -13 0
-207 -214 -9 14 0
-207 -214 9 -14 0
-207 -215 -9 15 0
-207 -215 9 -15 0
-208 -211 -9 10 0
-208 -211 9 -10 0
-208 -212 -9 13 0
-208 -212 9 -13 0
-208 -214 -9 16 0
-208 -214 9 -16 0
-208 -215 -9 17 0
-208 -215 9 -17 0
-209 -211 -9 11 0
-209 -211 9 -11 0
-209 -212 -9 14 0
-209 -212 9 -14 0
-209 -213 -9 16 0
-209 -213 9 -16 0
-209 -215 -9 18 0
-209 -215 9 -18 0
-210 -211 -9 12 0
-210 -211 9 -12 0
-210 -212 -9 15 0
-210 -212 9 -15 0
-210 -213 -9 17 0
-210 -213 9 -17 0
-210 -214 -9 18 0
-210 -214 9 -18 0
252 253 254 255 256 0
-252 272 0
-253 273 0
-272 273 0
-253 -272 0
-254 274 0
-273 274 0
-254 -273 0
-255 275 0
-274 275 0
-255 -274 0
-256 -275 0
257 258 259 260 261 0
-257 276 0
-258 277 0
-276 277 0
-258 -276 0
-259 278 0
-277 278 0
-259 -277 0
-260 279 0
-278 279 0
-260 -278 0
-261 -279 0
262 263 264 265 266 0
-262 280 0
-263 281 0
-280 281 0
-263 -280 0
-264 282 0
-281 282 0
-264 -281 0
-265 283 0
-282 283 0
-265 -282 0
-266 -283 0
267 268 269 270 271 0
-267 284 0
-268 285 0
-284 285 0
-268 -284 0
-269 286 0
-285 286 0
-269 -285 0
-270 287 0
-286 287 0
-270 -286 0
-271 -287 0
252 257 262 267 34 0
-252 288 0
-257 289 0
-288 289 0
-257 -288 0
-262 290 0
-289 290 0
-262 -289 0
-267 291 0
-290 291 0
-267 -290 0
-34 -291 0
253 258 263 268 35 0
-253 292 0
-258 293 0
-292 293 0
-258 -292 0
-263 294 0
-293 294 0
-263 -293 0
-268 295 0
-294 295 0
-268 -294 0
-35 -295 0
254 259 264 269 36 0
-254 296 0
-259 297 0
-296 297 0
-259 -296 0
-264 298 0
-297 298 0
-264 -297 0
-269 299 0
-298 299 0
-269 -298 0
-36 -299 0
255 260 265 270 37 0
-255 300 0
-260 301 0
-300 301 0
-260 -300 0
-265 302 0
-301 302 0
-265 -301 0
-270 303 0
-302 303 0
-270 -302 0
-37 -303 0
256 261 266 271 38 0
-256 304 0
-261 305 0
-304 305 0
-261 -304 0
-266 306 0
-305 306 0
-266 -305 0
-271 307 0
-306 307 0
-271 -306 0
-38 -307 0
-252 -259 -10 0
-252 -260 -11 0
-252 -261 -12 0
-253 -259 -13 0
-253 -260 -14 0
-253 -261 -15 0
-254 -257 -10 0
-254 -258 -13 0
-254 -260 -16 0
-254 -261 -17 0
-255 -257 -11 0
-255 -258 -14 0
-255 -259 -16 0
-255 -261 -18 0
-256 -257 -12 0
-256 -258 -15 0
-256 -259 -17 0
-256 -260 -18 0
-252 -263 -1 0
-252 -264 -1 10 0
-252 -264 1 -10 0
-252 -265 -1 11 0
-252 -265 1 -11 0
-252 -266 -1 12 0
-252 -266 1 -12 0
-253 -262 -1 0
-253 -264 -1 13 0
-253 -264 1 -13 0
-253 -265 -1 14 0
-253 -265 1 -14 0
-253 -266 -1 15 0
-253 -266 1 -15 0
-254 -262 -1 10 0
-254 -262 1 -10 0
-254 -263 -1 13 0
-254 -263 1 -13 0
-254 -265 -1 16 0
-254 -265 1 -16 0
-254 -266 -1 17 0
-254 -266 1 -17 0
-255 -262 -1 11 0
-255 -262 1 -11 0
-255 -263 -1 14 0
-255 -263 1 -14 0
-255 -264 -1 16 0
-255 -264 1 -16 0
-255 -266 -1 18 0
-255 -266 1 -18 0
-256 -262 -1 12 0
-256 -262 1 -12 0
-256 -263 -1 15 0
-256 -263 1 -15 0
-256 -264 -1 17 0
-256 -264 1 -17 0
-256 -265 -1 18 0
-256 -265 1 -18 0
-252 -268 -3 0
-252 -269 -3 10 0
-252 -269 3 -10 0
-252 -270 -3 11 0
-252 -270 3 -11 0
-252 -271 -3 12 0
-252 -271 3 -12 0
-253 -267 -3 0
-253 -269 -3 13 0
-253 -269 3 -13 0
-253 -270 -3 14 0
-253 -270 3 -14 0
-253 -271 -3 15 0
-253 -271 3 -15 0
-254 -267 -3 10 0
-254 -267 3 -10 0
-254 -268 -3 13 0
-254 -268 3 -13 0
-254 -270 -3 16 0
-254 -270 3 -16 0
-254 -271 -3 17 0
-254 -271 3 -17 0
-255 -267 -3 11 0
-255 -267 3 -11 0
-255 -268 -3 14 0
-255 -268 3 -14 0
-255 -269 -3 16 0
-255 -269 3 -16 0
-255 -271 -3 18 0
-255 -271 3 -18 0
-256 -267 -3 12 0
-256 -267 3 -12 0
-256 -268 -3 15 0
-256 -268 3 -15 0
-256 -269 -3 17 0
-256 -269 3 -17 0
-256 -270 -3 18 0
-256 -270 3 -18 0
-257 -263 -4 0
-257 -264 -4 10 0
-257 -264 4 -10 0
-257 -265 -4 11 0
-257 -265 4 -11 0
-257 -266 -4 12 0
-257 -266 4 -12 0
-258 -262 -4 0
-258 -264 -4 13 0
-258 -264 4 -13 0
-258 -265 -4 14 0
-258 -265 4 -14 0
-258 -266 -4 15 0
-258 -266 4 -15 0
-259 -262 -4 10 0
-259 -262 4 -10 0
-259 -263 -4 13 0
-259 -263 4 -13 0
-259 -265 -4 16 0
-259 -265 4 -16 0
-259 -266 -4 17 0
-259 -266 4 -17 0
-260 -262 -4 11 0
-260 -262 4 -11 0
-260 -263 -4 14 0
-260 -263 4 -14 0
-260 -264 -4 16 0
-260 -264 4 -16 0
-260 -266 -4 18 0
-260 -266 4 -18 0
-261 -262 -4 12 0
-261 -262 4 -12 0
-261 -263 -4 15 0
-261 -263 4 -15 0
-261 -264 -4 17 0
-261 -264 4 -17 0
-261 -265 -4 18 0
-261 -265 4 -18 0
-257 -268 -6 0
-257 -269 -6 10 0
-257 -269 6 -10 0
-257 -270 -6 11 0
-257 -270 6 -11 0
-257 -271 -6 12 0
-257 -271 6 -12 0
-258 -267 -6 0
-258 -269 -6 13 0
-258 -269 6 -13 0
-258 -270 -6 14 0
-258 -270 6 -14 0
-258 -271 -6 15 0
-258 -271 6 -15 0
-259 -267 -6 10 0
-259 -267 6 -10 0
-259 -268 -6 13 0
-259 -268 6 -13 0
-259 -270 -6 16 0
-259 -270 6 -16 0
-259 -271 -6 17 0
-259 -271 6 -17 0
-260 -267 -6 11 0
-260 -267 6 -11 0
-260 -268 -6 14 0
-260 -268 6 -14 0
-260 -269 -6 16 0
-260 -269 6 -16 0
-260 -271 -6 18 0
-260 -271 6 -18 0
-261 -267 -6 12 0
-261 -267 6 -12 0
-261 -268 -6 15 0
-261 -268 6 -15 0
-261 -269 -6 17 0
-261 -269 6 -17 0
-261 -270 -6 18 0
-261 -270 6 -18 0
-262 -268 -8 0
-262 -269 -8 10 0
-262 -269 8 -10 0
-262 -270 -8 11 0
-262 -270 8 -11 0
-262 -271 -8 12 0
-262 -271 8 -12 0
-263 -267 -8 0
-263 -269 -8 13 0
-263 -269 8 -13 0
-263 -270 -8 14 0
-263 -270 8 -14 0
-263 -271 -8 15 0
-263 -271 8 -15 0
-264 -267 -8 10 0
-264 -267 8 -10 0
-264 -268 -8 13 0
-264 -268 8 -13 0
-264 -270 -8 16 0
-264 -270 8 -16 0
-264 -271 -8 17 0
-264 -271 8 -17 0
-265 -267 -8 11 0
-265 -267 8 -11 0
-265 -268 -8 14 0
-265 -268 8 -14 0
-265 -269 -8 16 0
-265 -269 8 -16 0
-265 -271 -8 18 0
-265 -271 8 -18 0
-266 -267 -8 12 0
-266 -267 8 -12 0
-266 -268 -8 15 0
-266 -268 8 -15 0
-266 -269 -8 17 0
-266 -269 8 -17 0
-266 -270 -8 18 0
-266 -270 8 -18 0
308 309 310 311 312 0
-308 328 0
-309 329 0
-328 329 0
-309 -328 0
-310 330 0
-329 330 0
-310 -329 0
-311 331 0
-330 331 0
-311 -330 0
-312 -331 0
313 314 315 316 317 0
-313 332 0
-314 333 0
-332 333 0
-314 -332 0
-315 334 0
-333 334 0
-315 -333 0
-316 335 0
-334 335 0
-316 -334 0
-317 -335 0
318 319 320 321 322 0
-318 336 0
-319 337 0
-336 337 0
-319 -336 0
-320 338 0
-337 338 0
-320 -337 0
-321 339 0
-338 339 0
-321 -338 0
-322 -339 0
323 324 325 326 327 0
-323 340 0
-324 341 0
-340 341 0
-324 -340 0
-325 342 0
-341 342 0
-325 -341 0
-326 343 0
-342 343 0
-326 -342 0
-327 -343 0
308 313 318 323 39 0
-308 344 0
-313 345 0
-344 345 0
-313 -344 0
-318 346 0
-345 346 0
-318 -345 0
-323 347 0
-346 347 0
-323 -346 0
-39 -347 0
309 314 319 324 40 0
-309 348 0
-314 349 0
-348 349 0
-314 -348 0
-319 350 0
-349 350 0
-319 -349 0
-324 351 0
-350 351 0
-324 -350 0
-40 -351 0
310 315 320 325 41 0
-310 352 0
-315 353 0
-352 353 0
-315 -352 0
-320 354 0
-353 354 0
-320 -353 0
-325 355 0
-354 355 0
-325 -354 0
-41 -355 0
311 316 321 326 42 0
-311 356 0
-316 357 0
-356 357 0
-316 -356 0
-321 358 0
-357 358 0
-321 -357 0
-326 359 0
-358 359 0
-326 -358 0
-42 -359 0
312 317 322 327 43 0
-312 360 0
-317 361 0
-360 361 0
-317 -360 0
-322 362 0
-361 362 0
-322 -361 0
-327 363 0
-362 363 0
-327 -362 0
-43 -363 0
-308 -315 -10 0
-308 -316 -11 0
-308 -317 -12 0
-309 -315 -13 0
-309 -316 -14 0
-309 -317 -15 0
-310 -313 -10 0
-310 -314 -13 0
-310 -316 -16 0
-310 -317 -17 0
-311 -313 -11 0
-311 -314 -14 0
-311 -315 -16 0
-311 -317 -18 0
-312 -313 -12 0
-312 -314 -15 0
-312 -315 -17 0
-312 -316 -18 0
-308 -319 -1 0
-308 -320 -1 10 0
-308 -320 1 -10 0
-308 -321 -1 11 0
-308 -321 1 -11 0
-308 -322 -1 12 0
-308 -322 1 -12 0
-309 -318 -1 0
-309 -320 -1 13 0
-309 -320 1 -13 0
-309 -321 -1 14 0
-309 -321 1 -14 0
-309 -322 -1 15 0
-309 -322 1 -15 0
-310 -318 -1 10 0
-310 -318 1 -10 0
-310 -319 -1 13 0
-310 -319 1 -13 0
-310 -321 -1 16 0
-310 -321 1 -16 0
-310 -322 -1 17 0
-310 -322 1 -17 0
-311 -318 -1 11 0
-311 -318 1 -11 0
-311 -319 -1 14 0
-311 -319 1 -14 0
-311 -320 -1 16 0
-311 -320 1 -16 0
-311 -322 -1 18 0
-311 -322 1 -18 0
-312 -318 -1 12 0
-312 -318 1 -12 0
-312 -319 -1 15 0
-312 -319 1 -15 0
-312 -320 -1 17 0
-312 -320 1 -17 0
-312 -321 -1 18 0
-312 -321 1 -18 0
-308 -324 -2 0
-308 -325 -2 10 0
-308 -325 2 -10 0
-308 -326 -2 11 0
-308 -326 2 -11 0
-308 -327 -2 12 0
-308 -327 2 -12 0
-309 -323 -2 0
-309 -325 -2 13 0
-309 -325 2 -13 0
-309 -326 -2 14 0
-309 -326 2 -14 0
-309 -327 -2 15 0
-309 -327 2 -15 0
-310 -323 -2 10 0
-310 -323 2 -10 0
-310 -324 -2 13 0
-310 -324 2 -13 0
-310 -326 -2 16 0
-310 -326 2 -16 0
-310 -327 -2 17 0
-310 -327 2 -17 0
-311 -323 -2 11 0
-311 -323 2 -11 0
-311 -324 -2 14 0
-311 -324 2 -14 0
-311 -325 -2 16 0
-311 -325 2 -16 0
-311 -327 -2 18 0
-311 -327 2 -18 0
-312 -323 -2 12 0
-312 -323 2 -12 0
-312 -324 -2 15 0
-312 -324 2 -15 0
-312 -325 -2 17 0
-312 -325 2 -17 0
-312 -326 -2 18 0
-312 -326 2 -18 0
-313 -319 -4 0
-313 -320 -4 10 0
-313 -320 4 -10 0
-313 -321 -4 11 0
-313 -321 4 -11 0
-313 -322 -4 12 0
-313 -322 4 -12 0
-314 -318 -4 0
-314 -320 -4 13 0
-314 -320 4 -13 0
-314 -321 -4 14 0
-314 -321 4 -14 0
-314 -322 -4 15 0
-314 -322 4 -15 0
-315 -318 -4 10 0
-315 -318 4 -10 0
-315 -319 -4 13 0
-315 -319 4 -13 0
-315 -321 -4 16 0
-315 -321 4 -16 0
-315 -322 -4 17 0
-315 -322 4 -17 0
-316 -318 -4 11 0
-316 -318 4 -11 0
-316 -319 -4 14 0
-316 -319 4 -14 0
-316 -320 -4 16 0
-316 -320 4 -16 0
-316 -322 -4 18 0
-316 -322 4 -18 0
-317 -318 -4 12 0
-317 -318 4 -12 0
-317 -319 -4 15 0
-317 -319 4 -15 0
-317 -320 -4 17 0
-317 -320 4 -17 0
-317 -321 -4 18 0
-317 -321 4 -18 0
-313 -324 -5 0
-313 -325 -5 10 0
-313 -325 5 -10 0
-313 -326 -5 11 0
-313 -326 5 -11 0
-313 -327 -5 12 0
-313 -327 5 -12 0
-314 -323 -5 0
-314 -325 -5 13 0
-314 -325 5 -13 0
-314 -326 -5 14 0
-314 -326 5 -14 0
-314 -327 -5 15 0
-314 -327 5 -15 0
-315 -323 -5 10 0
-315 -323 5 -10 0
-315 -324 -5 13 0
-315 -324 5 -13 0
-315 -326 -5 16 0
-315 -326 5 -16 0
-315 -327 -5 17 0
-315 -327 5 -17 0
-316 -323 -5 11 0
-316 -323 5 -11 0
-316 -324 -5 14 0
-316 -324 5 -14 0
-316 -325 -5 16 0
-316 -325 5 -16 0
-316 -327 -5 18 0
-316 -327 5 -18 0
-317 -323 -5 12 0
-317 -323 5 -12 0
-317 -324 -5 15 0
-317 -324 5 -15 0
-317 -325 -5 17 0
-317 -325 5 -17 0
-317 -326 -5 18 0
-317 -326 5 -18 0
-318 -324 -7 0
-318 -325 -7 10 0
-318 -325 7 -10 0
-318 -326 -7 11 0
-318 -326 7 -11 0
-318 -327 -7 12 0
-318 -327 7 -12 0
-319 -323 -7 0
-319 -325 -7 13 0
-319 -325 7 -13 0
-319 -326 -7 14 0
-319 -326 7 -14 0
-319 -327 -7 15 0
-319 -327 7 -15 0
-320 -323 -7 10 0
-320 -323 7 -10 0
-320 -324 -7 13 0
-320 -324 7 -13 0
-320 -326 -7 16 0
-320 -326 7 -16 0
-320 -327 -7 17 0
-320 -327 7 -17 0
-321 -323 -7 11 0
-321 -323 7 -11 0
-321 -324 -7 14 0
-321 -324 7 -14 0
-321 -325 -7 16 0
-321 -325 7 -16 0
-321 -327 -7 18 0
-321 -327 7 -18 0
-322 -323 -7 12 0
-322 -323 7 -12 0
-322 -324 -7 15 0
-322 -324 7 -15 0
-322 -325 -7 17 0
-322 -325 7 -17 0
-322 -326 -7 18 0
-322 -326 7 -18 0
1 10 -364 0
-1 -10 -364 0
1 -10 364 0
-1 10 364 0
2 11 -365 0
-2 -11 -365 0
2 -11 365 0
-2 11 365 0
3 12 -366 0
-3 -12 -366 0
3 -12 366 0
-3 12 366 0
4 13 -367 0
-4 -13 -367 0
4 -13 367 0
-4 13 367 0
5 14 -368 0
-5 -14 -368 0
5 -14 368 0
-5 14 368 0
6 15 -369 0
-6 -15 -369 0
6 -15 369 0
-6 15 369 0
7 16 -370 0
-7 -16 -370 0
7 -16 370 0
-7 16 370 0
8 17 -371 0
-8 -17 -371 0
8 -17 371 0
-8 17 371 0
9 18 -372 0
-9 -18 -372 0
9 -18 372 0
-9 18 372 0
364 365 366 367 368 369 370 371 372 0
-1 373 0
-373 1 0
-373 374 0
-2 374 0
-374 373 2 0
-2 -373 375 0
-375 2 0
-375 373 0
-374 376 0
-3 376 0
-376 374 3 0
-375 377 0
-3 -374 377 0
-377 375 3 0
-377 375 374 0
-3 -375 378 0
-378 3 0
-378 375 0
-376 379 0
-4 379 0
-379 376 4 0
-377 380 0
-4 -376 380 0
-380 377 4 0
-380 377 376 0
-378 381 0
-4 -377 381 0
-381 378 4 0
-381 378 377 0
-4 -378 382 0
-382 4 0
-382 378 0
-379 383 0
-5 383 0
-383 379 5 0
-380 384 0
-5 -379 384 0
-384 380 5 0
-384 380 379 0
-381 385 0
-5 -380 385 0
-385 381 5 0
-385 381 380 0
-382 386 0
-5 -381 386 0
-386 382 5 0
-386 382 381 0
-5 -382 387 0
-387 5 0
-387 382 0
-383 388 0
-6 388 0
-388 383 6 0
-384 389 0
-6 -383 389 0
-389 384 6 0
-389 384 383 0
-385 390 0
-6 -384 390 0
-390 385 6 0
-390 385 384 0
-386 391 0
-6 -385 391 0
-391 386 6 0
-391 386 385 0
-387 392 0
-6 -386 392 0
-392 387 6 0
-392 387 386 0
-6 -387 393 0
-393 6 0
-393 387 0
-388 394 0
-7 394 0
-394 388 7 0
-389 395 0
-7 -388 395 0
-395 389 7 0
-395 389 388 0
-390 396 0
-7 -389 396 0
-396 390 7 0
-396 390 389 0
-391 397 0
-7 -390 397 0
-397 391 7 0
-397 391 390 0
-392 398 0
-7 -391 398 0
-398 392 7 0
-398 392 391 0
-393 399 0
-7 -392 399 0
-399 393 7 0
-399 393 392 0
-7 -393 400 0
-400 7 0
-400 393 0
-394 401 0
-8 401 0
-401 394 8 0
-395 402 0
-8 -394 402 0
-402 395 8 0
-402 395 394 0
-396 403 0
-8 -395 403 0
-403 396 8 0
-403 396 395 0
-397 404 0
-8 -396 404 0
-404 397 8 0
-404 397 396 0
-398 405 0
-8 -397 405 0
-405 398 8 0
-405 398 397 0
-399 406 0
-8 -398 406 0
-406 399 8 0
-406 399 398 0
-400 407 0
-8 -399 407 0
-407 400 8 0
-407 400 399 0
-8 -400 408 0
-408 8 0
-408 400 0
-401 409 0
-9 409 0
-409 401 9 0
-402 410 0
-9 -401 410 0
-410 402 9 0
-410 402 401 0
-403 411 0
-9 -402 411 0
-411 403 9 0
-411 403 402 0
-404 412 0
-9 -403 412 0
-412 404 9 0
-412 404 403 0
-405 413 0
-9 -404 413 0
-413 405 9 0
-413 405 404 0
-406 414 0
-9 -405 414 0
-414 406 9 0
-414 406 405 0
-407 415 0
-9 -406 415 0
-415 407 9 0
-415 407 406 0
-408 416 0
-9 -407 416 0
-416 408 9 0
-416 408 407 0
-9 -408 417 0
-417 9 0
-417 408 0
-1 418 0
-418 1 0
-418 419 0
-2 419 0
-419 418 2 0
-2 -418 420 0
-420 2 0
-420 418 0
-419 421 0
-3 421 0
-421 419 3 0
-420 422 0
-3 -419 422 0
-422 420 3 0
-422 420 419 0
-3 -420 423 0
-423 3 0
-423 420 0
-4 424 0
-424 4 0
-424 425 0
-5 425 0
-425 424 5 0
-5 -424 426 0
-426 5 0
-426 424 0
-425 427 0
-6 427 0
-427 425 6 0
-426 428 0
-6 -425 428 0
-428 426 6 0
-428 426 425 0
-6 -426 429 0
-429 6 0
-429 426 0
-1 430 0
-430 1 0
-430 431 0
-4 431 0
-431 430 4 0
-4 -430 432 0
-432 4 0
-432 430 0
-431 433 0
-7 433 0
-433 431 7 0
-432 434 0
-7 -431 434 0
-434 432 7 0
-434 432 431 0
-7 -432 435 0
-435 7 0
-435 432 0
-433 436 0
-8 436 0
-436 433 8 0
-434 437 0
-8 -433 437 0
-437 434 8 0
-437 434 433 0
-435 438 0
-8 -434 438 0
-438 435 8 0
-438 435 434 0
-8 -435 439 0
-439 8 0
-439 435 0
-2 440 0
-440 2 0
-440 441 0
-5 441 0
-441 440 5 0
-5 -440 442 0
-442 5 0
-442 440 0
-441 443 0
-7 443 0
-443 441 7 0
-442 444 0
-7 -441 444 0
-444 442 7 0
-444 442 441 0
-7 -442 445 0
-445 7 0
-445 442 0
-443 446 0
-9 446 0
-446 443 9 0
-444 447 0
-9 -443 447 0
-447 444 9 0
-447 444 443 0
-445 448 0
-9 -444 448 0
-448 445 9 0
-448 445 444 0
-9 -445 449 0
-449 9 0
-449 445 0
-3 450 0
-450 3 0
-450 451 0
-6 451 0
-451 450 6 0
-6 -450 452 0
-452 6 0
-452 450 0
-451 453 0
-8 453 0
-453 451 8 0
-452 454 0
-8 -451 454 0
-454 452 8 0
-454 452 451 0
-8 -452 455 0
-455 8 0
-455 452 0
-453 456 0
-9 456 0
-456 453 9 0
-454 457 0
-9 -453 457 0
-457 454 9 0
-457 454 453 0
-455 458 0
-9 -454 458 0
-458 455 9 0
-458 455 454 0
-9 -455 459 0
-459 9 0
-459 455 0
-10 460 0
-460 10 0
-460 461 0
-11 461 0
-461 460 11 0
-11 -460 462 0
-462 11 0
-462 460 0
-461 463 0
-12 463 0
-463 461 12 0
-462 464 0
-12 -461 464 0
-464 462 12 0
-464 462 461 0
-12 -462 465 0
-465 12 0
-465 462 0
-463 466 0
-13 466 0
-466 463 13 0
-464 467 0
-13 -463 467 0
-467 464 13 0
-467 464 463 0
-465 468 0
-13 -464 468 0
-468 465 13 0
-468 465 464 0
-13 -465 469 0
-469 13 0
-469 465 0
-466 470 0
-14 470 0
-470 466 14 0
-467 471 0
-14 -466 471 0
-471 467 14 0
-471 467 466 0
-468 472 0
-14 -467 472 0
-472 468 14 0
-472 468 467 0
-469 473 0
-14 -468 473 0
-473 469 14 0
-473 469 468 0
-14 -469 474 0
-474 14 0
-474 469 0
-470 475 0
-15 475 0
-475 470 15 0
-471 476 0
-15 -470 476 0
-476 471 15 0
-476 471 470 0
-472 477 0
-15 -471 477 0
-477 472 15 0
-477 472 471 0
-473 478 0
-15 -472 478 0
-478 473 15 0
-478 473 472 0
-474 479 0
-15 -473 479 0
-479 474 15 0
-479 474 473 0
-15 -474 480 0
-480 15 0
-480 474 0
-475 481 0
-16 481 0
-481 475 16 0
-476 482 0
-16 -475 482 0
-482 476 16 0
-482 476 475 0
-477 483 0
-16 -476 483 0
-483 477 16 0
-483 477 476 0
-478 484 0
-16 -477 484 0
-484 478 16 0
-484 478 477 0
-479 485 0
-16 -478 485 0
-485 479 16 0
-485 479 478 0
-480 486 0
-16 -479 486 0
-486 480 16 0
-486 480 479 0
-16 -480 487 0
-487 16 0
-487 480 0
-481 488 0
-17 488 0
-488 481 17 0
-482 489 0
-17 -481 489 0
-489 482 17 0
-489 482 481 0
-483 490 0
-17 -482 490 0
-490 483 17 0
-490 483 482 0
-484 491 0
-17 -483 491 0
-491 484 17 0
-491 484 483 0
-485 492 0
-17 -484 492 0
-492 485 17 0
-492 485 484 0
-486 493 0
-17 -485 493 0
-493 486 17 0
-493 486 485 0
-487 494 0
-17 -486 494 0
-494 487 17 0
-494 487 486 0
-17 -487 495 0
-495 17 0
-495 487 0
-488 496 0
-18 496 0
-496 488 18 0
-489 497 0
-18 -488 497 0
-497 489 18 0
-497 489 488 0
-490 498 0
-18 -489 498 0
-498 490 18 0
-498 490 489 0
-491 499 0
-18 -490 499 0
-499 491 18 0
-499 491 490 0
-492 500 0
-18 -491 500 0
-500 492 18 0
-500 492 491 0
-493 501 0
-18 -492 501 0
-501 493 18 0
-501 493 492 0
-494 502 0
-18 -493 502 0
-502 494 18 0
-502 494 493 0
-495 503 0
-18 -494 503 0
-503 495 18 0
-503 495 494 0
-18 -495 504 0
-504 18 0
-504 495 0
-10 505 0
-505 10 0
-505 506 0
-11 506 0
-506 505 11 0
-11 -505 507 0
-507 11 0
-507 505 0
-506 508 0
-12 508 0
-508 506 12 0
-507 509 0
-12 -506 509 0
-509 507 12 0
-509 507 506 0
-12 -507 510 0
-510 12 0
-510 507 0
-13 511 0
-511 13 0
-511 512 0
-14 512 0
-512 511 14 0
-14 -511 513 0
-513 14 0
-513 511 0
-512 514 0
-15 514 0
-514 512 15 0
-513 515 0
-15 -512 515 0
-515 513 15 0
-515 513 512 0
-15 -513 516 0
-516 15 0
-516 513 0
-10 517 0
-517 10 0
-517 518 0
-13 518 0
-518 517 13 0
-13 -517 519 0
-519 13 0
-519 517 0
-518 520 0
-16 520 0
-520 518 16 0
-519 521 0
-16 -518 521 0
-521 519 16 0
-521 519 518 0
-16 -519 522 0
-522 16 0
-522 519 0
-520 523 0
-17 523 0
-523 520 17 0
-521 524 0
-17 -520 524 0
-524 521 17 0
-524 521 520 0
-522 525 0
-17 -521 525 0
-525 522 17 0
-525 522 521 0
-17 -522 526 0
-526 17 0
-526 522 0
-11 527 0
-527 11 0
-527 528 0
-14 528 0
-528 527 14 0
-14 -527 529 0
-529 14 0
-529 527 0
-528 530 0
-16 530 0
-530 528 16 0
-529 531 0
-16 -528 531 0
-531 529 16 0
-531 529 528 0
-16 -529 532 0
-532 16 0
-532 529 0
-530 533 0
-18 533 0
-533 530 18 0
-531 534 0
-18 -530 534 0
-534 531 18 0
-534 531 530 0
-532 535 0
-18 -531 535 0
-535 532 18 0
-535 532 531 0
-18 -532 536 0
-536 18 0
-536 532 0
-12 537 0
-537 12 0
-537 538 0
-15 538 0
-538 537 15 0
-15 -537 539 0
-539 15 0
-539 537 0
-538 540 0
-17 540 0
-540 538 17 0
-539 541 0
-17 -538 541 0
-541 539 17 0
-541 539 538 0
-17 -539 542 0
-542 17 0
-542 539 0
-540 543 0
-18 543 0
-543 540 18 0
-541 544 0
-18 -540 544 0
-544 541 18 0
-544 541 540 0
-542 545 0
-18 -541 545 0
-545 542 18 0
-545 542 541 0
-18 -542 546 0
-546 18 0
-546 542 0
-409 496 0
409 -496 0
-410 497 0
410 -497 0
-411 498 0
411 -498 0
-412 499 0
412 -499 0
-413 500 0
413 -500 0
-414 501 0
414 -501 0
-415 502 0
415 -502 0
-416 503 0
416 -503 0
-417 504 0
417 -504 0
-19 -421 508 0
-19 421 -508 0
-19 -422 509 0
-19 422 -509 0
-19 -423 510 0
-19 423 -510 0
-20 -421 514 0
-20 421 -514 0
-20 -422 515 0
-20 422 -515 0
-20 -423 516 0
-20 423 -516 0
-21 -421 523 0
-21 421 -523 0
-21 -422 524 0
-21 422 -524 0
-21 -423 525 0
-21 423 -525 0
-21 -526 0
-22 -421 533 0
-22 421 -533 0
-22 -422 534 0
-22 422 -534 0
-22 -423 535 0
-22 423 -535 0
-22 -536 0
-23 -421 543 0
-23 421 -543 0
-23 -422 544 0
-23 422 -544 0
-23 -423 545 0
-23 423 -545 0
-23 -546 0
-24 -427 508 0
-24 427 -508 0
-24 -428 509 0
-24 428 -509 0
-24 -429 510 0
-24 429 -510 0
-25 -427 514 0
-25 427 -514 0
-25 -428 515 0
-25 428 -515 0
-25 -429 516 0
-25 429 -516 0
-26 -427 523 0
-26 427 -523 0
-26 -428 524 0
-26 428 -524 0
-26 -429 525 0
-26 429 -525 0
-26 -526 0
-27 -427 533 0
-27 427 -533 0
-27 -428 534 0
-27 428 -534 0
-27 -429 535 0
-27 429 -535 0
-27 -536 0
-28 -427 543 0
-28 427 -543 0
-28 -428 544 0
-28 428 -544 0
-28 -429 545 0
-28 429 -545 0
-28 -546 0
-29 -436 508 0
-29 436 -508 0
-29 -437 509 0
-29 437 -509 0
-29 -438 510 0
-29 438 -510 0
-29 -439 0
-30 -436 514 0
-30 436 -514 0
-30 -437 515 0
-30 437 -515 0
-30 -438 516 0
-30 438 -516 0
-30 -439 0
-31 -436 523 0
-31 436 -523 0
-31 -437 524 0
-31 437 -524 0
-31 -438 525 0
-31 438 -525 0
-31 -439 526 0
-31 439 -526 0
-32 -436 533 0
-32 436 -533 0
-32 -437 534 0
-32 437 -534 0
-32 -438 535 0
-32 438 -535 0
-32 -439 536 0
-32 439 -536 0
-33 -436 543 0
-33 436 -543 0
-33 -437 544 0
-33 437 -544 0
-33 -438 545 0
-33 438 -545 0
-33 -439 546 0
-33 439 -546 0
-34 -446 508 0
-34 446 -508 0
-34 -447 509 0
-34 447 -509 0
-34 -448 510 0
-34 448 -510 0
-34 -449 0
-35 -446 514 0
-35 446 -514 0
-35 -447 515 0
-35 447 -515 0
-35 -448 516 0
-35 448 -516 0
-35 -449 0
-36 -446 523 0
-36 446 -523 0
-36 -447 524 0
-36 447 -524 0
-36 -448 525 0
-36 448 -525 0
-36 -449 526 0
-36 449 -526 0
-37 -446 533 0
-37 446 -533 0
-37 -447 534 0
-37 447 -534 0
-37 -448 535 0
-37 448 -535 0
-37 -449 536 0
-37 449 -536 0
-38 -446 543 0
-38 446 -543 0
-38 -447 544 0
-38 447 -544 0
-38 -448 545 0
-38 448 -545 0
-38 -449 546 0
-38 449 -546 0
-39 -456 508 0
-39 456 -508 0
-39 -457 509 0
-39 457 -509 0
-39 -458 510 0
-39 458 -510 0
-39 -459 0
-40 -456 514 0
-40 456 -514 0
-40 -457 515 0
-40 457 -515 0
-40 -458 516 0
-40 458 -516 0
-40 -459 0
-41 -456 523 0
-41 456 -523 0
-41 -457 524 0
-41 457 -524 0
-41 -458 525 0
-41 458 -525 0
-41 -459 526 0
-41 459 -526 0
-42 -456 533 0
-42 456 -533 0
-42 -457 534 0
-42 457 -534 0
-42 -458 535 0
-42 458 -535 0
-42 -459 536 0
-42 459 -536 0
-43 -456 543 0
-43 456 -543 0
-43 -457 544 0
-43 457 -544 0
-43 -458 545 0
-43 458 -545 0
-43 -459 546 0
-43 459 -546 0
1 11 -547 0
-1 -11 -547 0
1 -11 547 0
-1 11 547 0
1 12 -548 0
-1 -12 -548 0
1 -12 548 0
-1 12 548 0
1 13 -549 0
-1 -13 -549 0
1 -13 549 0
-1 13 549 0
1 14 -550 0
-1 -14 -550 0
1 -14 550 0
-1 14 550 0
1 15 -551 0
-1 -15 -551 0
1 -15 551 0
-1 15 551 0
1 16 -552 0
-1 -16 -552 0
1 -16 552 0
-1 16 552 0
1 17 -553 0
-1 -17 -553 0
1 -17 553 0
-1 17 553 0
1 18 -554 0
-1 -18 -554 0
1 -18 554 0
-1 18 554 0
2 10 -555 0
-2 -10 -555 0
2 -10 555 0
-2 10 555 0
2 12 -556 0
-2 -12 -556 0
2 -12 556 0
-2 12 556 0
2 13 -557 0
-2 -13 -557 0
2 -13 557 0
-2 13 557 0
2 14 -558 0
-2 -14 -558 0
2 -14 558 0
-2 14 558 0
2 15 -559 0
-2 -15 -559 0
2 -15 559 0
-2 15 559 0
2 16 -560 0
-2 -16 -560 0
2 -16 560 0
-2 16 560 0
2 17 -561 0
-2 -17 -561 0
2 -17 561 0
-2 17 561 0
2 18 -562 0
-2 -18 -562 0
2 -18 562 0
-2 18 562 0
3 10 -563 0
-3 -10 -563 0
3 -10 563 0
-3 10 563 0
3 11 -564 0
-3 -11 -564 0
3 -11 564 0
-3 11 564 0
3 13 -565 0
-3 -13 -565 0
3 -13 565 0
-3 13 565 0
3 14 -566 0
-3 -14 -566 0
3 -14 566 0
-3 14 566 0
3 15 -567 0
-3 -15 -567 0
3 -15 567 0
-3 15 567 0
3 16 -568 0
-3 -16 -568 0
3 -16 568 0
-3 16 568 0
3 17 -569 0
-3 -17 -569 0
3 -17 569 0
-3 17 569 0
3 18 -570 0
-3 -18 -570 0
3 -18 570 0
-3 18 570 0
4 10 -571 0
-4 -10 -571 0
4 -10 571 0
-4 10 571 0
4 11 -572 0
-4 -11 -572 0
4 -11 572 0
-4 11 572 0
4 12 -573 0
-4 -12 -573 0
4 -12 573 0
-4 12 573 0
4 14 -574 0
-4 -14 -574 0
4 -14 574 0
-4 14 574 0
4 15 -575 0
-4 -15 -575 0
4 -15 575 0
-4 15 575 0
4 16 -576 0
-4 -16 -576 0
4 -16 576 0
-4 16 576 0
4 17 -577 0
-4 -17 -577 0
4 -17 577 0
-4 17 577 0
4 18 -578 0
-4 -18 -578 0
4 -18 578 0
-4 18 578 0
5 10 -579 0
-5 -10 -579 0
5 -10 579 0
-5 10 579 0
5 11 -580 0
-5 -11 -580 0
5 -11 580 0
-5 11 580 0
5 12 -581 0
-5 -12 -581 0
5 -12 581 0
-5 12 581 0
5 13 -582 0
-5 -13 -582 0
5 -13 582 0
-5 13 582 0
5 15 -583 0
-5 -15 -583 0
5 -15 583 0
-5 15 583 0
5 16 -584 0
-5 -16 -584 0
5 -16 584 0
-5 16 584 0
5 17 -585 0
-5 -17 -585 0
5 -17 585 0
-5 17 585 0
5 18 -586 0
-5 -18 -586 0
5 -18 586 0
-5 18 586 0
6 10 -587 0
-6 -10 -587 0
6 -10 587 0
-6 10 587 0
6 11 -588 0
-6 -11 -588 0
6 -11 588 0
-6 11 588 0
6 12 -589 0
-6 -12 -589 0
6 -12 589 0
-6 12 589 0
6 13 -590 0
-6 -13 -590 0
6 -13 590 0
-6 13 590 0
6 14 -591 0
-6 -14 -591 0
6 -14 591 0
-6 14 591 0
6 16 -592 0
-6 -16 -592 0
6 -16 592 0
-6 16 592 0
6 17 -593 0
-6 -17 -593 0
6 -17 593 0
-6 17 593 0
6 18 -594 0
-6 -18 -594 0
6 -18 594 0
-6 18 594 0
7 10 -595 0
-7 -10 -595 0
7 -10 595 0
-7 10 595 0
7 11 -596 0
-7 -11 -596 0
7 -11 596 0
-7 11 596 0
7 12 -597 0
-7 -12 -597 0
7 -12 597 0
-7 12 597 0
7 13 -598 0
-7 -13 -598 0
7 -13 598 0
-7 13 598 0
7 14 -599 0
-7 -14 -599 0
7 -14 599 0
-7 14 599 0
7 15 -600 0
-7 -15 -600 0
7 -15 600 0
-7 15 600 0
7 17 -601 0
-7 -17 -601 0
7 -17 601 0
-7 17 601 0
7 18 -602 0
-7 -18 -602 0
7 -18 602 0
-7 18 602 0
8 10 -603 0
-8 -10 -603 0
8 -10 603 0
-8 10 603 0
8 11 -604 0
-8 -11 -604 0
8 -11 604 0
-8 11 604 0
8 12 -605 0
-8 -12 -605 0
8 -12 605 0
-8 12 605 0
8 13 -606 0
-8 -13 -606 0
8 -13 606 0
-8 13 606 0
8 14 -607 0
-8 -14 -607 0
8 -14 607 0
-8 14 607 0
8 15 -608 0
-8 -15 -608 0
8 -15 608 0
-8 15 608 0
8 16 -609 0
-8 -16 -609 0
8 -16 609 0
-8 16 609 0
8 18 -610 0
-8 -18 -610 0
8 -18 610 0
-8 18 610 0
9 10 -611 0
-9 -10 -611 0
9 -10 611 0
-9 10 611 0
9 11 -612 0
-9 -11 -612 0
9 -11 612 0
-9 11 612 0
9 12 -613 0
-9 -12 -613 0
9 -12 613 0
-9 12 613 0
9 13 -614 0
-9 -13 -614 0
9 -13 614 0
-9 13 614 0
9 14 -615 0
-9 -14 -615 0
9 -14 615 0
-9 14 615 0
9 15 -616 0
-9 -15 -616 0
9 -15 616 0
-9 15 616 0
9 16 -617 0
-9 -16 -617 0
9 -16 617 0
-9 16 617 0
9 17 -618 0
-9 -17 -618 0
9 -17 618 0
-9 17 618 0
364 365 366 367 368 369 370 371 372 0
364 367 372 556 564 583 591 601 609 0
366 369 370 547 555 574 582 610 618 0
547 556 563 574 583 590 602 609 618 0
548 555 564 575 582 591 601 610 617 0
365 368 371 548 563 575 590 602 617 0
370 371 372 549 558 567 571 580 589 0
372 549 559 566 571 581 588 601 609 0
370 550 557 567 572 579 589 610 618 0
550 559 565 572 581 587 602 609 618 0
551 557 566 573 579 588 601 610 617 0
371 551 558 565 573 580 587 602 617 0
4 13 364 368 369 372 560 569 596 605 0
4 13 364 372 561 568 583 591 597 604 0
5 13 369 552 555 569 574 596 610 613 0
6 13 552 561 563 574 583 602 604 613 0
5 13 553 555 568 575 591 597 610 612 0
6 13 368 553 560 563 575 602 605 612 0
4 14 369 547 560 570 582 595 605 618 0
4 14 547 562 568 583 590 597 603 618 0
5 14 365 367 369 371 552 570 595 613 0
6 14 367 552 562 564 583 601 603 613 0
5 14 365 371 554 568 575 590 597 611 0
6 14 554 560 564 575 582 601 605 611 0
4 15 548 561 570 582 591 595 604 617 0
4 15 368 548 562 569 590 596 603 617 0
5 15 367 553 556 570 591 595 609 612 0
6 15 366 367 368 370 553 562 603 612 0
5 15 554 556 569 574 590 596 609 611 0
6 15 366 370 554 561 574 582 604 611 0
4 10 372 549 560 569 580 589 599 608 0
4 10 372 549 561 568 581 588 600 607 0
5 10 552 557 569 572 589 599 610 616 0
6 10 552 561 565 572 581 602 607 616 0
5 10 553 557 568 573 588 600 610 615 0
6 10 553 560 565 573 580 602 608 615 0
4 11 550 560 570 579 589 598 608 618 0
4 11 550 562 568 581 587 600 606 618 0
5 11 371 552 558 570 571 589 598 616 0
6 11 552 562 566 571 581 601 606 616 0
5 11 371 554 558 568 573 587 600 614 0
6 11 554 560 566 573 579 601 608 614 0
4 12 551 561 570 579 588 598 607 617 0
4 12 551 562 569 580 587 599 606 617 0
5 12 553 559 570 571 588 598 609 615 0
6 12 370 553 562 567 571 580 606 615 0
5 12 554 559 569 572 587 599 609 614 0
6 12 370 554 561 567 572 579 607 614 0
1 13 372 558 567 571 584 593 596 605 0
1 13 372 559 566 571 585 592 597 604 0
2 13 550 567 576 579 593 596 610 613 0
3 13 550 559 576 585 587 602 604 613 0
2 13 551 566 577 579 592 597 610 612 0
3 13 551 558 577 584 587 602 605 612 0
1 14 557 567 572 584 594 595 605 618 0
1 14 559 565 572 586 592 597 603 618 0
2 14 371 549 567 576 580 594 595 613 0
3 14 549 559 576 586 588 601 603 613 0
2 14 371 551 565 578 580 592 597 611 0
3 14 551 557 578 584 588 601 605 611 0
1 15 557 566 573 585 594 595 604 617 0
1 15 558 565 573 586 593 596 603 617 0
2 15 549 566 577 581 594 595 609 612 0
3 15 370 549 558 577 586 589 603 612 0
2 15 550 565 578 581 593 596 609 611 0
3 15 370 550 557 578 585 589 604 611 0
1 10 365 366 367 372 584 593 599 608 0
1 10 367 372 556 564 585 592 600 607 0
2 10 366 547 576 582 593 599 610 616 0
3 10 547 556 576 585 590 602 607 616 0
2 10 548 564 577 582 592 600 610 615 0
3 10 365 548 577 584 590 602 608 615 0
1 11 366 555 574 584 594 598 608 618 0
1 11 556 563 574 586 592 600 606 618 0
2 11 364 366 368 371 576 594 598 616 0
3 11 364 556 576 586 591 601 606 616 0
2 11 368 371 548 563 578 592 600 614 0
3 11 548 555 578 584 591 601 608 614 0
1 12 555 564 575 585 594 598 607 617 0
1 12 365 563 575 586 593 599 606 617 0
2 12 364 564 577 583 594 598 609 615 0
3 12 364 365 369 370 577 586 606 615 0
2 12 547 563 578 583 593 599 609 614 0
3 12 369 370 547 555 578 585 607 614 0
7 16 364 368 557 569 572 594 605 616 0
8 16 364 561 565 572 586 591 597 616 0
7 16 549 555 569 574 580 594 608 613 0
8 16 549 561 563 574 586 588 600 613 0
9 16 553 555 565 578 580 591 597 608 0
9 16 368 553 557 563 578 588 600 605 0
7 17 364 557 568 573 583 594 604 615 0
8 17 364 369 560 565 573 586 596 615 0
7 17 549 555 568 575 581 594 607 612 0
8 17 549 560 563 575 586 589 599 612 0
9 17 369 552 555 565 578 581 596 607 0
9 17 552 557 563 578 583 589 599 604 0
7 16 547 558 570 571 582 593 605 616 0
8 16 547 562 566 571 585 590 597 616 0
7 16 365 367 550 570 579 593 608 613 0
8 16 367 550 562 564 585 587 600 613 0
9 16 365 554 566 577 579 590 597 608 0
9 16 554 558 564 577 582 587 600 605 0
7 18 547 558 568 573 583 593 603 614 0
8 18 369 547 560 566 573 585 595 614 0
7 18 365 550 568 575 581 593 606 611 0
8 18 550 560 564 575 585 589 598 611 0
9 18 365 369 552 566 577 581 595 606 0
9 18 552 558 564 577 583 589 598 603 0
7 17 548 559 570 571 582 592 604 615 0
8 17 548 562 567 571 584 590 596 615 0
7 17 367 551 556 570 579 592 607 612 0
8 17 366 367 551 562 584 587 599 612 0
9 17 554 556 567 576 579 590 596 607 0
9 17 366 554 559 576 582 587 599 604 0
7 18 368 548 559 569 572 592 603 614 0
8 18 548 561 567 572 584 591 595 614 0
7 18 551 556 569 574 580 592 606 611 0
8 18 366 551 561 574 584 588 598 611 0
9 18 553 556 567 576 580 591 595 606 0
9 18 366 368 553 559 576 588 598 603 0
