p cnf 342 1926
2 22 -42 0
-2 -22 -42 0
2 -22 42 0
-2 22 42 0
-41 -42 0
3 23 -43 0
-3 -23 -43 0
3 -23 43 0
-3 23 43 0
-41 -43 0
4 24 -44 0
-4 -24 -44 0
4 -24 44 0
-4 24 44 0
-41 -44 0
5 25 -45 0
-5 -25 -45 0
5 -25 45 0
-5 25 45 0
-41 -45 0
6 26 -46 0
-6 -26 -46 0
6 -26 46 0
-6 26 46 0
-41 -46 0
7 27 -47 0
-7 -27 -47 0
7 -27 47 0
-7 27 47 0
-41 -47 0
8 28 -48 0
-8 -28 -48 0
8 -28 48 0
-8 28 48 0
-41 -48 0
9 29 -49 0
-9 -29 -49 0
9 -29 49 0
-9 29 49 0
-41 -49 0
10 30 -50 0
-10 -30 -50 0
10 -30 50 0
-10 30 50 0
-41 -50 0
11 31 -51 0
-11 -31 -51 0
11 -31 51 0
-11 31 51 0
-41 -51 0
12 32 -52 0
-12 -32 -52 0
12 -32 52 0
-12 32 52 0
-41 -52 0
13 33 -53 0
-13 -33 -53 0
13 -33 53 0
-13 33 53 0
-41 -53 0
14 34 -54 0
-14 -34 -54 0
14 -34 54 0
-14 34 54 0
-41 -54 0
15 35 -55 0
-15 -35 -55 0
15 -35 55 0
-15 35 55 0
-41 -55 0
16 36 -56 0
-16 -36 -56 0
16 -36 56 0
-16 36 56 0
-41 -56 0
17 37 -57 0
-17 -37 -57 0
17 -37 57 0
-17 37 57 0
-41 -57 0
18 38 -58 0
-18 -38 -58 0
18 -38 58 0
-18 38 58 0
-41 -58 0
19 39 -59 0
-19 -39 -59 0
19 -39 59 0
-19 39 59 0
-41 -59 0
20 40 -60 0
-20 -40 -60 0
20 -40 60 0
-20 40 60 0
-41 -60 0
-61 -42 0
3 21 -62 0
-3 -21 -62 0
3 -21 62 0
-3 21 62 0
-61 -62 0
4 37 -63 0
-4 -37 -63 0
4 -37 63 0
-4 37 63 0
-61 -63 0
5 36 -64 0
-5 -36 -64 0
5 -36 64 0
-5 36 64 0
-61 -64 0
6 35 -65 0
-6 -35 -65 0
6 -35 65 0
-6 35 65 0
-61 -65 0
7 34 -66 0
-7 -34 -66 0
7 -34 66 0
-7 34 66 0
-61 -66 0
8 33 -67 0
-8 -33 -67 0
8 -33 67 0
-8 33 67 0
-61 -67 0
9 32 -68 0
-9 -32 -68 0
9 -32 68 0
-9 32 68 0
-61 -68 0
10 31 -69 0
-10 -31 -69 0
10 -31 69 0
-10 31 69 0
-61 -69 0
11 30 -70 0
-11 -30 -70 0
11 -30 70 0
-11 30 70 0
-61 -70 0
12 29 -71 0
-12 -29 -71 0
12 -29 71 0
-12 29 71 0
-61 -71 0
13 28 -72 0
-13 -28 -72 0
13 -28 72 0
-13 28 72 0
-61 -72 0
14 27 -73 0
-14 -27 -73 0
14 -27 73 0
-14 27 73 0
-61 -73 0
15 26 -74 0
-15 -26 -74 0
15 -26 74 0
-15 26 74 0
-61 -74 0
16 25 -75 0
-16 -25 -75 0
16 -25 75 0
-16 25 75 0
-61 -75 0
17 24 -76 0
-17 -24 -76 0
17 -24 76 0
-17 24 76 0
-61 -76 0
18 40 -77 0
-18 -40 -77 0
18 -40 77 0
-18 40 77 0
-61 -77 0
-61 -59 0
20 38 -78 0
-20 -38 -78 0
20 -38 78 0
-20 38 78 0
-61 -78 0
1 23 -80 0
-1 -23 -80 0
1 -23 80 0
-1 23 80 0
-79 -80 0
-79 -42 0
-79 -63 0
-79 -64 0
-79 -65 0
-79 -66 0
-79 -67 0
-79 -68 0
-79 -69 0
-79 -70 0
-79 -71 0
-79 -72 0
-79 -73 0
-79 -74 0
-79 -75 0
-79 -76 0
-79 -77 0
-79 -59 0
-79 -78 0
1 21 -82 0
-1 -21 -82 0
1 -21 82 0
-1 21 82 0
-81 -82 0
-81 -42 0
-81 -44 0
-81 -45 0
-81 -46 0
-81 -47 0
-81 -48 0
-81 -49 0
-81 -50 0
-81 -51 0
-81 -52 0
-81 -53 0
-81 -54 0
-81 -55 0
-81 -56 0
-81 -57 0
-81 -58 0
-81 -59 0
-81 -60 0
-83 -82 0
-83 -43 0
-83 -44 0
-83 -45 0
-83 -46 0
-83 -47 0
-83 -48 0
-83 -49 0
-83 -50 0
-83 -51 0
-83 -52 0
-83 -53 0
-83 -54 0
-83 -55 0
-83 -56 0
-83 -57 0
-83 -58 0
-83 -59 0
-83 -60 0
-84 -80 0
-84 -62 0
-84 -63 0
-84 -64 0
-84 -65 0
-84 -66 0
-84 -67 0
-84 -68 0
-84 -69 0
-84 -70 0
-84 -71 0
-84 -72 0
-84 -73 0
-84 -74 0
-84 -75 0
-84 -76 0
-84 -77 0
-84 -59 0
-84 -78 0
-85 -82 0
-85 -42 0
-85 -43 0
-85 -45 0
-85 -46 0
-85 -47 0
-85 -48 0
-85 -49 0
-85 -50 0
-85 -51 0
-85 -52 0
-85 -53 0
-85 -54 0
-85 -55 0
-85 -56 0
-85 -57 0
-85 -58 0
-85 -59 0
-85 -60 0
-86 -80 0
-86 -42 0
-86 -62 0
-86 -64 0
-86 -65 0
-86 -66 0
-86 -67 0
-86 -68 0
-86 -69 0
-86 -70 0
-86 -71 0
-86 -72 0
-86 -73 0
-86 -74 0
-86 -75 0
-86 -76 0
-86 -77 0
-86 -59 0
-86 -78 0
-87 -80 0
-87 -42 0
-87 -62 0
-87 -63 0
-87 -64 0
-87 -65 0
-87 -66 0
-87 -67 0
-87 -68 0
-87 -69 0
-87 -70 0
-87 -71 0
-87 -72 0
-87 -73 0
-87 -74 0
-87 -75 0
-87 -77 0
-87 -59 0
-87 -78 0
-88 -82 0
-88 -42 0
-88 -43 0
-88 -44 0
-88 -45 0
-88 -46 0
-88 -47 0
-88 -48 0
-88 -49 0
-88 -50 0
-88 -51 0
-88 -52 0
-88 -53 0
-88 -54 0
-88 -55 0
-88 -56 0
-88 -58 0
-88 -59 0
-88 -60 0
-89 -82 0
-89 -42 0
-89 -43 0
-89 -44 0
-89 -46 0
-89 -47 0
-89 -48 0
-89 -49 0
-89 -50 0
-89 -51 0
-89 -52 0
-89 -53 0
-89 -54 0
-89 -55 0
-89 -56 0
-89 -57 0
-89 -58 0
-89 -59 0
-89 -60 0
-90 -80 0
-90 -42 0
-90 -62 0
-90 -63 0
-90 -65 0
-90 -66 0
-90 -67 0
-90 -68 0
-90 -69 0
-90 -70 0
-90 -71 0
-90 -72 0
-90 -73 0
-90 -74 0
-90 -75 0
-90 -76 0
-90 -77 0
-90 -59 0
-90 -78 0
-91 -80 0
-91 -42 0
-91 -62 0
-91 -63 0
-91 -64 0
-91 -65 0
-91 -66 0
-91 -67 0
-91 -68 0
-91 -69 0
-91 -70 0
-91 -71 0
-91 -72 0
-91 -73 0
-91 -74 0
-91 -76 0
-91 -77 0
-91 -59 0
-91 -78 0
-92 -82 0
-92 -42 0
-92 -43 0
-92 -44 0
-92 -45 0
-92 -46 0
-92 -47 0
-92 -48 0
-92 -49 0
-92 -50 0
-92 -51 0
-92 -52 0
-92 -53 0
-92 -54 0
-92 -55 0
-92 -57 0
-92 -58 0
-92 -59 0
-92 -60 0
-93 -82 0
-93 -42 0
-93 -43 0
-93 -44 0
-93 -45 0
-93 -47 0
-93 -48 0
-93 -49 0
-93 -50 0
-93 -51 0
-93 -52 0
-93 -53 0
-93 -54 0
-93 -55 0
-93 -56 0
-93 -57 0
-93 -58 0
-93 -59 0
-93 -60 0
-94 -80 0
-94 -42 0
-94 -62 0
-94 -63 0
-94 -64 0
-94 -66 0
-94 -67 0
-94 -68 0
-94 -69 0
-94 -70 0
-94 -71 0
-94 -72 0
-94 -73 0
-94 -74 0
-94 -75 0
-94 -76 0
-94 -77 0
-94 -59 0
-94 -78 0
-95 -80 0
-95 -42 0
-95 -62 0
-95 -63 0
-95 -64 0
-95 -65 0
-95 -66 0
-95 -67 0
-95 -68 0
-95 -69 0
-95 -70 0
-95 -71 0
-95 -72 0
-95 -73 0
-95 -75 0
-95 -76 0
-95 -77 0
-95 -59 0
-95 -78 0
-96 -82 0
-96 -42 0
-96 -43 0
-96 -44 0
-96 -45 0
-96 -46 0
-96 -47 0
-96 -48 0
-96 -49 0
-96 -50 0
-96 -51 0
-96 -52 0
-96 -53 0
-96 -54 0
-96 -56 0
-96 -57 0
-96 -58 0
-96 -59 0
-96 -60 0
-97 -82 0
-97 -42 0
-97 -43 0
-97 -44 0
-97 -45 0
-97 -46 0
-97 -48 0
-97 -49 0
-97 -50 0
-97 -51 0
-97 -52 0
-97 -53 0
-97 -54 0
-97 -55 0
-97 -56 0
-97 -57 0
-97 -58 0
-97 -59 0
-97 -60 0
-98 -80 0
-98 -42 0
-98 -62 0
-98 -63 0
-98 -64 0
-98 -65 0
-98 -67 0
-98 -68 0
-98 -69 0
-98 -70 0
-98 -71 0
-98 -72 0
-98 -73 0
-98 -74 0
-98 -75 0
-98 -76 0
-98 -77 0
-98 -59 0
-98 -78 0
-99 -80 0
-99 -42 0
-99 -62 0
-99 -63 0
-99 -64 0
-99 -65 0
-99 -66 0
-99 -67 0
-99 -68 0
-99 -69 0
-99 -70 0
-99 -71 0
-99 -72 0
-99 -74 0
-99 -75 0
-99 -76 0
-99 -77 0
-99 -59 0
-99 -78 0
-100 -82 0
-100 -42 0
-100 -43 0
-100 -44 0
-100 -45 0
-100 -46 0
-100 -47 0
-100 -48 0
-100 -49 0
-100 -50 0
-100 -51 0
-100 -52 0
-100 -53 0
-100 -55 0
-100 -56 0
-100 -57 0
-100 -58 0
-100 -59 0
-100 -60 0
-101 -82 0
-101 -42 0
-101 -43 0
-101 -44 0
-101 -45 0
-101 -46 0
-101 -47 0
-101 -49 0
-101 -50 0
-101 -51 0
-101 -52 0
-101 -53 0
-101 -54 0
-101 -55 0
-101 -56 0
-101 -57 0
-101 -58 0
-101 -59 0
-101 -60 0
-102 -80 0
-102 -42 0
-102 -62 0
-102 -63 0
-102 -64 0
-102 -65 0
-102 -66 0
-102 -68 0
-102 -69 0
-102 -70 0
-102 -71 0
-102 -72 0
-102 -73 0
-102 -74 0
-102 -75 0
-102 -76 0
-102 -77 0
-102 -59 0
-102 -78 0
-103 -80 0
-103 -42 0
-103 -62 0
-103 -63 0
-103 -64 0
-103 -65 0
-103 -66 0
-103 -67 0
-103 -68 0
-103 -69 0
-103 -70 0
-103 -71 0
-103 -73 0
-103 -74 0
-103 -75 0
-103 -76 0
-103 -77 0
-103 -59 0
-103 -78 0
-104 -82 0
-104 -42 0
-104 -43 0
-104 -44 0
-104 -45 0
-104 -46 0
-104 -47 0
-104 -48 0
-104 -49 0
-104 -50 0
-104 -51 0
-104 -52 0
-104 -54 0
-104 -55 0
-104 -56 0
-104 -57 0
-104 -58 0
-104 -59 0
-104 -60 0
-105 -82 0
-105 -42 0
-105 -43 0
-105 -44 0
-105 -45 0
-105 -46 0
-105 -47 0
-105 -48 0
-105 -50 0
-105 -51 0
-105 -52 0
-105 -53 0
-105 -54 0
-105 -55 0
-105 -56 0
-105 -57 0
-105 -58 0
-105 -59 0
-105 -60 0
-106 -80 0
-106 -42 0
-106 -62 0
-106 -63 0
-106 -64 0
-106 -65 0
-106 -66 0
-106 -67 0
-106 -69 0
-106 -70 0
-106 -71 0
-106 -72 0
-106 -73 0
-106 -74 0
-106 -75 0
-106 -76 0
-106 -77 0
-106 -59 0
-106 -78 0
-107 -80 0
-107 -42 0
-107 -62 0
-107 -63 0
-107 -64 0
-107 -65 0
-107 -66 0
-107 -67 0
-107 -68 0
-107 -69 0
-107 -70 0
-107 -72 0
-107 -73 0
-107 -74 0
-107 -75 0
-107 -76 0
-107 -77 0
-107 -59 0
-107 -78 0
-108 -82 0
-108 -42 0
-108 -43 0
-108 -44 0
-108 -45 0
-108 -46 0
-108 -47 0
-108 -48 0
-108 -49 0
-108 -50 0
-108 -51 0
-108 -53 0
-108 -54 0
-108 -55 0
-108 -56 0
-108 -57 0
-108 -58 0
-108 -59 0
-108 -60 0
-109 -82 0
-109 -42 0
-109 -43 0
-109 -44 0
-109 -45 0
-109 -46 0
-109 -47 0
-109 -48 0
-109 -49 0
-109 -51 0
-109 -52 0
-109 -53 0
-109 -54 0
-109 -55 0
-109 -56 0
-109 -57 0
-109 -58 0
-109 -59 0
-109 -60 0
-110 -80 0
-110 -42 0
-110 -62 0
-110 -63 0
-110 -64 0
-110 -65 0
-110 -66 0
-110 -67 0
-110 -68 0
-110 -70 0
-110 -71 0
-110 -72 0
-110 -73 0
-110 -74 0
-110 -75 0
-110 -76 0
-110 -77 0
-110 -59 0
-110 -78 0
-111 -80 0
-111 -42 0
-111 -62 0
-111 -63 0
-111 -64 0
-111 -65 0
-111 -66 0
-111 -67 0
-111 -68 0
-111 -69 0
-111 -71 0
-111 -72 0
-111 -73 0
-111 -74 0
-111 -75 0
-111 -76 0
-111 -77 0
-111 -59 0
-111 -78 0
-112 -82 0
-112 -42 0
-112 -43 0
-112 -44 0
-112 -45 0
-112 -46 0
-112 -47 0
-112 -48 0
-112 -49 0
-112 -50 0
-112 -52 0
-112 -53 0
-112 -54 0
-112 -55 0
-112 -56 0
-112 -57 0
-112 -58 0
-112 -59 0
-112 -60 0
-113 -82 0
-113 -42 0
-113 -43 0
-113 -44 0
-113 -45 0
-113 -46 0
-113 -47 0
-113 -48 0
-113 -49 0
-113 -50 0
-113 -51 0
-113 -52 0
-113 -53 0
-113 -54 0
-113 -55 0
-113 -56 0
-113 -57 0
-113 -59 0
-113 -60 0
1 24 -115 0
-1 -24 -115 0
1 -24 115 0
-1 24 115 0
-114 -115 0
2 23 -116 0
-2 -23 -116 0
2 -23 116 0
-2 23 116 0
-114 -116 0
3 22 -117 0
-3 -22 -117 0
3 -22 117 0
-3 22 117 0
-114 -117 0
4 21 -118 0
-4 -21 -118 0
4 -21 118 0
-4 21 118 0
-114 -118 0
5 37 -119 0
-5 -37 -119 0
5 -37 119 0
-5 37 119 0
-114 -119 0
6 36 -120 0
-6 -36 -120 0
6 -36 120 0
-6 36 120 0
-114 -120 0
7 35 -121 0
-7 -35 -121 0
7 -35 121 0
-7 35 121 0
-114 -121 0
8 34 -122 0
-8 -34 -122 0
8 -34 122 0
-8 34 122 0
-114 -122 0
9 33 -123 0
-9 -33 -123 0
9 -33 123 0
-9 33 123 0
-114 -123 0
10 32 -124 0
-10 -32 -124 0
10 -32 124 0
-10 32 124 0
-114 -124 0
-114 -51 0
12 30 -125 0
-12 -30 -125 0
12 -30 125 0
-12 30 125 0
-114 -125 0
13 29 -126 0
-13 -29 -126 0
13 -29 126 0
-13 29 126 0
-114 -126 0
14 28 -127 0
-14 -28 -127 0
14 -28 127 0
-14 28 127 0
-114 -127 0
15 27 -128 0
-15 -27 -128 0
15 -27 128 0
-15 27 128 0
-114 -128 0
16 26 -129 0
-16 -26 -129 0
16 -26 129 0
-16 26 129 0
-114 -129 0
17 25 -130 0
-17 -25 -130 0
17 -25 130 0
-17 25 130 0
-114 -130 0
19 40 -131 0
-19 -40 -131 0
19 -40 131 0
-19 40 131 0
-114 -131 0
20 39 -132 0
-20 -39 -132 0
20 -39 132 0
-20 39 132 0
-114 -132 0
1 36 -134 0
-1 -36 -134 0
1 -36 134 0
-1 36 134 0
-133 -134 0
2 21 -135 0
-2 -21 -135 0
2 -21 135 0
-2 21 135 0
-133 -135 0
-133 -43 0
4 25 -136 0
-4 -25 -136 0
4 -25 136 0
-4 25 136 0
-133 -136 0
5 27 -137 0
-5 -27 -137 0
5 -27 137 0
-5 27 137 0
-133 -137 0
6 29 -138 0
-6 -29 -138 0
6 -29 138 0
-6 29 138 0
-133 -138 0
7 31 -139 0
-7 -31 -139 0
7 -31 139 0
-7 31 139 0
-133 -139 0
-133 -67 0
9 35 -140 0
-9 -35 -140 0
9 -35 140 0
-9 35 140 0
-133 -140 0
10 37 -141 0
-10 -37 -141 0
10 -37 141 0
-10 37 141 0
-133 -141 0
11 22 -142 0
-11 -22 -142 0
11 -22 142 0
-11 22 142 0
-133 -142 0
12 24 -143 0
-12 -24 -143 0
12 -24 143 0
-12 24 143 0
-133 -143 0
13 26 -144 0
-13 -26 -144 0
13 -26 144 0
-13 26 144 0
-133 -144 0
-133 -127 0
15 30 -145 0
-15 -30 -145 0
15 -30 145 0
-15 30 145 0
-133 -145 0
16 32 -146 0
-16 -32 -146 0
16 -32 146 0
-16 32 146 0
-133 -146 0
17 34 -147 0
-17 -34 -147 0
17 -34 147 0
-17 34 147 0
-133 -147 0
19 38 -148 0
-19 -38 -148 0
19 -38 148 0
-19 38 148 0
-133 -148 0
-133 -60 0
1 25 -150 0
-1 -25 -150 0
1 -25 150 0
-1 25 150 0
-149 -150 0
-149 -116 0
-149 -62 0
4 36 -151 0
-4 -36 -151 0
4 -36 151 0
-4 36 151 0
-149 -151 0
5 34 -152 0
-5 -34 -152 0
5 -34 152 0
-5 34 152 0
-149 -152 0
6 32 -153 0
-6 -32 -153 0
6 -32 153 0
-6 32 153 0
-149 -153 0
7 30 -154 0
-7 -30 -154 0
7 -30 154 0
-7 30 154 0
-149 -154 0
-149 -48 0
9 26 -155 0
-9 -26 -155 0
9 -26 155 0
-9 26 155 0
-149 -155 0
10 24 -156 0
-10 -24 -156 0
10 -24 156 0
-10 24 156 0
-149 -156 0
-149 -142 0
12 37 -157 0
-12 -37 -157 0
12 -37 157 0
-12 37 157 0
-149 -157 0
13 35 -158 0
-13 -35 -158 0
13 -35 158 0
-13 35 158 0
-149 -158 0
14 33 -159 0
-14 -33 -159 0
14 -33 159 0
-14 33 159 0
-149 -159 0
15 31 -160 0
-15 -31 -160 0
15 -31 160 0
-15 31 160 0
-149 -160 0
16 29 -161 0
-16 -29 -161 0
16 -29 161 0
-16 29 161 0
-149 -161 0
17 27 -162 0
-17 -27 -162 0
17 -27 162 0
-17 27 162 0
-149 -162 0
-149 -131 0
-149 -78 0
1 37 -164 0
-1 -37 -164 0
1 -37 164 0
-1 37 164 0
-163 -164 0
-163 -135 0
-163 -117 0
4 23 -165 0
-4 -23 -165 0
4 -23 165 0
-4 23 165 0
-163 -165 0
5 24 -166 0
-5 -24 -166 0
5 -24 166 0
-5 24 166 0
-163 -166 0
6 25 -167 0
-6 -25 -167 0
6 -25 167 0
-6 25 167 0
-163 -167 0
7 26 -168 0
-7 -26 -168 0
7 -26 168 0
-7 26 168 0
-163 -168 0
8 27 -169 0
-8 -27 -169 0
8 -27 169 0
-8 27 169 0
-163 -169 0
9 28 -170 0
-9 -28 -170 0
9 -28 170 0
-9 28 170 0
-163 -170 0
10 29 -171 0
-10 -29 -171 0
10 -29 171 0
-10 29 171 0
-163 -171 0
-163 -70 0
12 31 -172 0
-12 -31 -172 0
12 -31 172 0
-12 31 172 0
-163 -172 0
13 32 -173 0
-13 -32 -173 0
13 -32 173 0
-13 32 173 0
-163 -173 0
-163 -159 0
15 34 -174 0
-15 -34 -174 0
15 -34 174 0
-15 34 174 0
-163 -174 0
16 35 -175 0
-16 -35 -175 0
16 -35 175 0
-16 35 175 0
-163 -175 0
17 36 -176 0
-17 -36 -176 0
17 -36 176 0
-17 36 176 0
-163 -176 0
-163 -148 0
-163 -132 0
-177 -80 0
-177 -42 0
-177 -62 0
-177 -63 0
-177 -64 0
-177 -65 0
-177 -66 0
-177 -67 0
-177 -68 0
-177 -69 0
-177 -70 0
-177 -71 0
-177 -72 0
-177 -73 0
-177 -74 0
-177 -75 0
-177 -76 0
-177 -59 0
-177 -78 0
1 22 -179 0
-1 -22 -179 0
1 -22 179 0
-1 22 179 0
-178 -179 0
2 31 -180 0
-2 -31 -180 0
2 -31 180 0
-2 31 180 0
-178 -180 0
-178 -43 0
4 32 -181 0
-4 -32 -181 0
4 -32 181 0
-4 32 181 0
-178 -181 0
-178 -166 0
6 33 -182 0
-6 -33 -182 0
6 -33 182 0
-6 33 182 0
-178 -182 0
7 25 -183 0
-7 -25 -183 0
7 -25 183 0
-7 25 183 0
-178 -183 0
-178 -122 0
-178 -155 0
10 35 -184 0
-10 -35 -184 0
10 -35 184 0
-10 35 184 0
-178 -184 0
11 27 -185 0
-11 -27 -185 0
11 -27 185 0
-11 27 185 0
-178 -185 0
12 36 -186 0
-12 -36 -186 0
12 -36 186 0
-12 36 186 0
-178 -186 0
-178 -72 0
14 37 -187 0
-14 -37 -187 0
14 -37 187 0
-14 37 187 0
-178 -187 0
15 29 -188 0
-15 -29 -188 0
15 -29 188 0
-15 29 188 0
-178 -188 0
16 21 -189 0
-16 -21 -189 0
16 -21 189 0
-16 21 189 0
-178 -189 0
17 30 -190 0
-17 -30 -190 0
17 -30 190 0
-17 30 190 0
-178 -190 0
18 39 -191 0
-18 -39 -191 0
18 -39 191 0
-18 39 191 0
-178 -191 0
-178 -60 0
-192 -80 0
-192 -180 0
-192 -117 0
4 30 -193 0
-4 -30 -193 0
4 -30 193 0
-4 30 193 0
-192 -193 0
5 21 -194 0
-5 -21 -194 0
5 -21 194 0
-5 21 194 0
-192 -194 0
-192 -138 0
7 37 -195 0
-7 -37 -195 0
7 -37 195 0
-7 37 195 0
-192 -195 0
-192 -48 0
9 36 -196 0
-9 -36 -196 0
9 -36 196 0
-9 36 196 0
-192 -196 0
10 27 -197 0
-10 -27 -197 0
10 -27 197 0
-10 27 197 0
-192 -197 0
11 35 -198 0
-11 -35 -198 0
11 -35 198 0
-11 35 198 0
-192 -198 0
12 26 -199 0
-12 -26 -199 0
12 -26 199 0
-12 26 199 0
-192 -199 0
13 34 -200 0
-13 -34 -200 0
13 -34 200 0
-13 34 200 0
-192 -200 0
14 25 -201 0
-14 -25 -201 0
14 -25 201 0
-14 25 201 0
-192 -201 0
15 33 -202 0
-15 -33 -202 0
15 -33 202 0
-15 33 202 0
-192 -202 0
16 24 -203 0
-16 -24 -203 0
16 -24 203 0
-16 24 203 0
-192 -203 0
17 32 -204 0
-17 -32 -204 0
17 -32 204 0
-17 32 204 0
-192 -204 0
-192 -77 0
-192 -132 0
-205 -82 0
-205 -42 0
-205 -43 0
-205 -44 0
-205 -45 0
-205 -46 0
-205 -47 0
-205 -48 0
-205 -49 0
-205 -50 0
-205 -51 0
-205 -52 0
-205 -53 0
-205 -54 0
-205 -55 0
-205 -56 0
-205 -57 0
-205 -58 0
-205 -60 0
-206 -80 0
-206 -42 0
-206 -62 0
-206 -63 0
-206 -64 0
-206 -65 0
-206 -66 0
-206 -67 0
-206 -68 0
-206 -69 0
-206 -70 0
-206 -71 0
-206 -72 0
-206 -73 0
-206 -74 0
-206 -75 0
-206 -76 0
-206 -77 0
-206 -78 0
-207 -82 0
2 30 -208 0
-2 -30 -208 0
2 -30 208 0
-2 30 208 0
-207 -208 0
-207 -117 0
4 31 -209 0
-4 -31 -209 0
4 -31 209 0
-4 31 209 0
-207 -209 0
5 23 -210 0
-5 -23 -210 0
5 -23 210 0
-5 23 210 0
-207 -210 0
-207 -153 0
7 24 -211 0
-7 -24 -211 0
7 -24 211 0
-7 24 211 0
-207 -211 0
-207 -67 0
9 25 -212 0
-9 -25 -212 0
9 -25 212 0
-9 25 212 0
-207 -212 0
10 34 -213 0
-10 -34 -213 0
10 -34 213 0
-10 34 213 0
-207 -213 0
11 26 -214 0
-11 -26 -214 0
11 -26 214 0
-11 26 214 0
-207 -214 0
12 35 -215 0
-12 -35 -215 0
12 -35 215 0
-12 35 215 0
-207 -215 0
13 27 -216 0
-13 -27 -216 0
13 -27 216 0
-13 27 216 0
-207 -216 0
14 36 -217 0
-14 -36 -217 0
14 -36 217 0
-14 36 217 0
-207 -217 0
15 28 -218 0
-15 -28 -218 0
15 -28 218 0
-15 28 218 0
-207 -218 0
16 37 -219 0
-16 -37 -219 0
16 -37 219 0
-16 37 219 0
-207 -219 0
17 29 -220 0
-17 -29 -220 0
17 -29 220 0
-17 29 220 0
-207 -220 0
-207 -58 0
-207 -132 0
-221 -179 0
-221 -208 0
-221 -62 0
4 29 -222 0
-4 -29 -222 0
4 -29 222 0
-4 29 222 0
-221 -222 0
-221 -119 0
6 28 -223 0
-6 -28 -223 0
6 -28 223 0
-6 28 223 0
-221 -223 0
7 36 -224 0
-7 -36 -224 0
7 -36 224 0
-7 36 224 0
-221 -224 0
-221 -169 0
-221 -140 0
10 26 -225 0
-10 -26 -225 0
10 -26 225 0
-10 26 225 0
-221 -225 0
11 34 -226 0
-11 -34 -226 0
11 -34 226 0
-11 34 226 0
-221 -226 0
12 25 -227 0
-12 -25 -227 0
12 -25 227 0
-12 25 227 0
-221 -227 0
-221 -53 0
14 24 -228 0
-14 -24 -228 0
14 -24 228 0
-14 24 228 0
-221 -228 0
15 32 -229 0
-15 -32 -229 0
15 -32 229 0
-15 32 229 0
-221 -229 0
16 23 -230 0
-16 -23 -230 0
16 -23 230 0
-16 23 230 0
-221 -230 0
17 31 -231 0
-17 -31 -231 0
17 -31 231 0
-17 31 231 0
-221 -231 0
-221 -191 0
-221 -78 0
-232 -179 0
-232 -116 0
3 24 -233 0
-3 -24 -233 0
3 -24 233 0
-3 24 233 0
-232 -233 0
-232 -136 0
5 26 -234 0
-5 -26 -234 0
5 -26 234 0
-5 26 234 0
-232 -234 0
6 27 -235 0
-6 -27 -235 0
6 -27 235 0
-6 27 235 0
-232 -235 0
7 28 -236 0
-7 -28 -236 0
7 -28 236 0
-7 28 236 0
-232 -236 0
8 29 -237 0
-8 -29 -237 0
8 -29 237 0
-8 29 237 0
-232 -237 0
9 30 -238 0
-9 -30 -238 0
9 -30 238 0
-9 30 238 0
-232 -238 0
-232 -69 0
11 32 -239 0
-11 -32 -239 0
11 -32 239 0
-11 32 239 0
-232 -239 0
12 33 -240 0
-12 -33 -240 0
12 -33 240 0
-12 33 240 0
-232 -240 0
-232 -200 0
14 35 -241 0
-14 -35 -241 0
14 -35 241 0
-14 35 241 0
-232 -241 0
15 36 -242 0
-15 -36 -242 0
15 -36 242 0
-15 36 242 0
-232 -242 0
-232 -219 0
17 21 -243 0
-17 -21 -243 0
17 -21 243 0
-17 21 243 0
-232 -243 0
-232 -191 0
-232 -131 0
-244 -80 0
-244 -42 0
-244 -62 0
-244 -63 0
-244 -64 0
-244 -65 0
-244 -66 0
-244 -67 0
-244 -68 0
-244 -69 0
-244 -70 0
-244 -71 0
-244 -72 0
-244 -73 0
-244 -74 0
-244 -75 0
-244 -76 0
-244 -77 0
-244 -59 0
-245 -82 0
-245 -116 0
3 25 -246 0
-3 -25 -246 0
3 -25 246 0
-3 25 246 0
-245 -246 0
4 27 -247 0
-4 -27 -247 0
4 -27 247 0
-4 27 247 0
-245 -247 0
5 29 -248 0
-5 -29 -248 0
5 -29 248 0
-5 29 248 0
-245 -248 0
6 31 -249 0
-6 -31 -249 0
6 -31 249 0
-6 31 249 0
-245 -249 0
7 33 -250 0
-7 -33 -250 0
7 -33 250 0
-7 33 250 0
-245 -250 0
8 35 -251 0
-8 -35 -251 0
8 -35 251 0
-8 35 251 0
-245 -251 0
9 37 -252 0
-9 -37 -252 0
9 -37 252 0
-9 37 252 0
-245 -252 0
10 22 -253 0
-10 -22 -253 0
10 -22 253 0
-10 22 253 0
-245 -253 0
11 24 -254 0
-11 -24 -254 0
11 -24 254 0
-11 24 254 0
-245 -254 0
-245 -199 0
-245 -72 0
14 30 -255 0
-14 -30 -255 0
14 -30 255 0
-14 30 255 0
-245 -255 0
-245 -229 0
16 34 -256 0
-16 -34 -256 0
16 -34 256 0
-16 34 256 0
-245 -256 0
-245 -176 0
-245 -58 0
-245 -131 0
-257 -80 0
-257 -135 0
3 36 -258 0
-3 -36 -258 0
3 -36 258 0
-3 36 258 0
-257 -258 0
4 34 -259 0
-4 -34 -259 0
4 -34 259 0
-4 34 259 0
-257 -259 0
5 32 -260 0
-5 -32 -260 0
5 -32 260 0
-5 32 260 0
-257 -260 0
6 30 -261 0
-6 -30 -261 0
6 -30 261 0
-6 30 261 0
-257 -261 0
-257 -236 0
8 26 -262 0
-8 -26 -262 0
8 -26 262 0
-8 26 262 0
-257 -262 0
9 24 -263 0
-9 -24 -263 0
9 -24 263 0
-9 24 263 0
-257 -263 0
-257 -253 0
11 37 -264 0
-11 -37 -264 0
11 -37 264 0
-11 37 264 0
-257 -264 0
-257 -215 0
-257 -53 0
14 31 -265 0
-14 -31 -265 0
14 -31 265 0
-14 31 265 0
-257 -265 0
-257 -188 0
16 27 -266 0
-16 -27 -266 0
16 -27 266 0
-16 27 266 0
-257 -266 0
-257 -130 0
-257 -77 0
-257 -148 0
-267 -82 0
-267 -42 0
-267 -43 0
-267 -44 0
-267 -45 0
-267 -46 0
-267 -47 0
-267 -48 0
-267 -49 0
-267 -50 0
-267 -51 0
-267 -52 0
-267 -53 0
-267 -54 0
-267 -55 0
-267 -56 0
-267 -57 0
-267 -58 0
-267 -59 0
-268 -179 0
-268 -135 0
3 37 -269 0
-3 -37 -269 0
3 -37 269 0
-3 37 269 0
-268 -269 0
-268 -151 0
5 35 -270 0
-5 -35 -270 0
5 -35 270 0
-5 35 270 0
-268 -270 0
6 34 -271 0
-6 -34 -271 0
6 -34 271 0
-6 34 271 0
-268 -271 0
-268 -250 0
8 32 -272 0
-8 -32 -272 0
8 -32 272 0
-8 32 272 0
-268 -272 0
9 31 -273 0
-9 -31 -273 0
9 -31 273 0
-9 31 273 0
-268 -273 0
-268 -50 0
11 29 -274 0
-11 -29 -274 0
11 -29 274 0
-11 29 274 0
-268 -274 0
12 28 -275 0
-12 -28 -275 0
12 -28 275 0
-12 28 275 0
-268 -275 0
-268 -216 0
14 26 -276 0
-14 -26 -276 0
14 -26 276 0
-14 26 276 0
-268 -276 0
15 25 -277 0
-15 -25 -277 0
15 -25 277 0
-15 25 277 0
-268 -277 0
-268 -203 0
17 23 -278 0
-17 -23 -278 0
17 -23 278 0
-17 23 278 0
-268 -278 0
-268 -191 0
-268 -148 0
41 61 0
-41 279 0
-61 -279 0
83 84 0
-83 280 0
-84 -280 0
79 81 0
-79 281 0
-81 -281 0
85 86 0
-85 282 0
-86 -282 0
89 90 0
-89 283 0
-90 -283 0
93 94 0
-93 284 0
-94 -284 0
97 98 0
-97 285 0
-98 -285 0
101 102 0
-101 286 0
-102 -286 0
105 106 0
-105 287 0
-106 -287 0
109 110 0
-109 288 0
-110 -288 0
111 112 0
-111 289 0
-112 -289 0
107 108 0
-107 290 0
-108 -290 0
103 104 0
-103 291 0
-104 -291 0
99 100 0
-99 292 0
-100 -292 0
95 96 0
-95 293 0
-96 -293 0
91 92 0
-91 294 0
-92 -294 0
87 88 0
-87 295 0
-88 -295 0
113 114 133 149 163 177 0
-113 296 0
-114 297 0
-296 297 0
-114 -296 0
-133 298 0
-297 298 0
-133 -297 0
-149 299 0
-298 299 0
-149 -298 0
-163 300 0
-299 300 0
-163 -299 0
-177 -300 0
178 192 205 206 207 221 0
-178 301 0
-192 302 0
-301 302 0
-192 -301 0
-205 303 0
-302 303 0
-205 -302 0
-206 304 0
-303 304 0
-206 -303 0
-207 305 0
-304 305 0
-207 -304 0
-221 -305 0
232 244 245 257 267 268 0
-232 306 0
-244 307 0
-306 307 0
-244 -306 0
-245 308 0
-307 308 0
-245 -307 0
-257 309 0
-308 309 0
-257 -308 0
-267 310 0
-309 310 0
-267 -309 0
-268 -310 0
41 79 0
-41 311 0
-79 -311 0
83 84 0
-83 312 0
-84 -312 0
61 81 0
-61 313 0
-81 -313 0
85 87 0
-85 314 0
-87 -314 0
89 91 0
-89 315 0
-91 -315 0
93 95 0
-93 316 0
-95 -316 0
97 99 0
-97 317 0
-99 -317 0
101 103 0
-101 318 0
-103 -318 0
105 107 0
-105 319 0
-107 -319 0
109 111 0
-109 320 0
-111 -320 0
110 112 0
-110 321 0
-112 -321 0
106 108 0
-106 322 0
-108 -322 0
102 104 0
-102 323 0
-104 -323 0
98 100 0
-98 324 0
-100 -324 0
94 96 0
-94 325 0
-96 -325 0
90 92 0
-90 326 0
-92 -326 0
86 88 0
-86 327 0
-88 -327 0
113 114 178 192 232 244 0
-113 328 0
-114 329 0
-328 329 0
-114 -328 0
-178 330 0
-329 330 0
-178 -329 0
-192 331 0
-330 331 0
-192 -330 0
-232 332 0
-331 332 0
-232 -331 0
-244 -332 0
133 149 205 206 245 257 0
-133 333 0
-149 334 0
-333 334 0
-149 -333 0
-205 335 0
-334 335 0
-205 -334 0
-206 336 0
-335 336 0
-206 -335 0
-245 337 0
-336 337 0
-245 -336 0
-257 -337 0
163 177 207 221 267 268 0
-163 338 0
-177 339 0
-338 339 0
-177 -338 0
-207 340 0
-339 340 0
-207 -339 0
-221 341 0
-340 341 0
-221 -340 0
-267 342 0
-341 342 0
-267 -341 0
-268 -342 0
82 42 43 44 45 46 47 48 49 50 51 52 53 54 55 56 57 58 59 60 0
80 42 62 63 64 65 66 67 68 69 70 71 72 73 74 75 76 77 59 78 0
