p cnf 1760 13592
2 22 -42 0
-2 -22 -42 0
2 -22 42 0
-2 22 42 0
-41 -42 0
3 23 -43 0
-3 -23 -43 0
3 -23 43 0
-3 23 43 0
-41 -43 0
4 24 -44 0
-4 -24 -44 0
4 -24 44 0
-4 24 44 0
-41 -44 0
5 25 -45 0
-5 -25 -45 0
5 -25 45 0
-5 25 45 0
-41 -45 0
6 26 -46 0
-6 -26 -46 0
6 -26 46 0
-6 26 46 0
-41 -46 0
7 27 -47 0
-7 -27 -47 0
7 -27 47 0
-7 27 47 0
-41 -47 0
8 28 -48 0
-8 -28 -48 0
8 -28 48 0
-8 28 48 0
-41 -48 0
9 29 -49 0
-9 -29 -49 0
9 -29 49 0
-9 29 49 0
-41 -49 0
10 30 -50 0
-10 -30 -50 0
10 -30 50 0
-10 30 50 0
-41 -50 0
11 31 -51 0
-11 -31 -51 0
11 -31 51 0
-11 31 51 0
-41 -51 0
12 32 -52 0
-12 -32 -52 0
12 -32 52 0
-12 32 52 0
-41 -52 0
13 33 -53 0
-13 -33 -53 0
13 -33 53 0
-13 33 53 0
-41 -53 0
14 34 -54 0
-14 -34 -54 0
14 -34 54 0
-14 34 54 0
-41 -54 0
15 35 -55 0
-15 -35 -55 0
15 -35 55 0
-15 35 55 0
-41 -55 0
16 36 -56 0
-16 -36 -56 0
16 -36 56 0
-16 36 56 0
-41 -56 0
17 37 -57 0
-17 -37 -57 0
17 -37 57 0
-17 37 57 0
-41 -57 0
18 38 -58 0
-18 -38 -58 0
18 -38 58 0
-18 38 58 0
-41 -58 0
19 39 -59 0
-19 -39 -59 0
19 -39 59 0
-19 39 59 0
-41 -59 0
20 40 -60 0
-20 -40 -60 0
20 -40 60 0
-20 40 60 0
-41 -60 0
-61 -42 0
3 40 -62 0
-3 -40 -62 0
3 -40 62 0
-3 40 62 0
-61 -62 0
-61 -44 0
-61 -45 0
-61 -46 0
-61 -47 0
-61 -48 0
-61 -49 0
-61 -50 0
-61 -51 0
-61 -52 0
-61 -53 0
-61 -54 0
-61 -55 0
-61 -56 0
-61 -57 0
-61 -58 0
-61 -59 0
20 23 -63 0
-20 -23 -63 0
20 -23 63 0
-20 23 63 0
-61 -63 0
2 23 -65 0
-2 -23 -65 0
2 -23 65 0
-2 23 65 0
-64 -65 0
3 22 -66 0
-3 -22 -66 0
3 -22 66 0
-3 22 66 0
-64 -66 0
4 38 -67 0
-4 -38 -67 0
4 -38 67 0
-4 38 67 0
-64 -67 0
5 37 -68 0
-5 -37 -68 0
5 -37 68 0
-5 37 68 0
-64 -68 0
6 36 -69 0
-6 -36 -69 0
6 -36 69 0
-6 36 69 0
-64 -69 0
7 35 -70 0
-7 -35 -70 0
7 -35 70 0
-7 35 70 0
-64 -70 0
8 34 -71 0
-8 -34 -71 0
8 -34 71 0
-8 34 71 0
-64 -71 0
9 33 -72 0
-9 -33 -72 0
9 -33 72 0
-9 33 72 0
-64 -72 0
10 32 -73 0
-10 -32 -73 0
10 -32 73 0
-10 32 73 0
-64 -73 0
-64 -51 0
12 30 -74 0
-12 -30 -74 0
12 -30 74 0
-12 30 74 0
-64 -74 0
13 29 -75 0
-13 -29 -75 0
13 -29 75 0
-13 29 75 0
-64 -75 0
14 28 -76 0
-14 -28 -76 0
14 -28 76 0
-14 28 76 0
-64 -76 0
15 27 -77 0
-15 -27 -77 0
15 -27 77 0
-15 27 77 0
-64 -77 0
16 26 -78 0
-16 -26 -78 0
16 -26 78 0
-16 26 78 0
-64 -78 0
17 25 -79 0
-17 -25 -79 0
17 -25 79 0
-17 25 79 0
-64 -79 0
18 24 -80 0
-18 -24 -80 0
18 -24 80 0
-18 24 80 0
-64 -80 0
19 40 -81 0
-19 -40 -81 0
19 -40 81 0
-19 40 81 0
-64 -81 0
20 39 -82 0
-20 -39 -82 0
20 -39 82 0
-20 39 82 0
-64 -82 0
-83 -65 0
3 39 -84 0
-3 -39 -84 0
3 -39 84 0
-3 39 84 0
-83 -84 0
-83 -67 0
-83 -68 0
-83 -69 0
-83 -70 0
-83 -71 0
-83 -72 0
-83 -73 0
-83 -51 0
-83 -74 0
-83 -75 0
-83 -76 0
-83 -77 0
-83 -78 0
-83 -79 0
-83 -80 0
-83 -81 0
20 22 -85 0
-20 -22 -85 0
20 -22 85 0
-20 22 85 0
-83 -85 0
2 39 -87 0
-2 -39 -87 0
2 -39 87 0
-2 39 87 0
-86 -87 0
-86 -43 0
-86 -44 0
-86 -45 0
-86 -46 0
-86 -47 0
-86 -48 0
-86 -49 0
-86 -50 0
-86 -51 0
-86 -52 0
-86 -53 0
-86 -54 0
-86 -55 0
-86 -56 0
-86 -57 0
-86 -58 0
19 22 -88 0
-19 -22 -88 0
19 -22 88 0
-19 22 88 0
-86 -88 0
-86 -60 0
-89 -87 0
-89 -62 0
-89 -44 0
-89 -45 0
-89 -46 0
-89 -47 0
-89 -48 0
-89 -49 0
-89 -50 0
-89 -51 0
-89 -52 0
-89 -53 0
-89 -54 0
-89 -55 0
-89 -56 0
-89 -57 0
-89 -58 0
-89 -88 0
-89 -63 0
2 40 -91 0
-2 -40 -91 0
2 -40 91 0
-2 40 91 0
-90 -91 0
-90 -66 0
-90 -67 0
-90 -68 0
-90 -69 0
-90 -70 0
-90 -71 0
-90 -72 0
-90 -73 0
-90 -51 0
-90 -74 0
-90 -75 0
-90 -76 0
-90 -77 0
-90 -78 0
-90 -79 0
-90 -80 0
19 23 -92 0
-19 -23 -92 0
19 -23 92 0
-19 23 92 0
-90 -92 0
-90 -82 0
-93 -91 0
-93 -84 0
-93 -67 0
-93 -68 0
-93 -69 0
-93 -70 0
-93 -71 0
-93 -72 0
-93 -73 0
-93 -51 0
-93 -74 0
-93 -75 0
-93 -76 0
-93 -77 0
-93 -78 0
-93 -79 0
-93 -80 0
-93 -92 0
-93 -85 0
-94 -65 0
3 21 -95 0
-3 -21 -95 0
3 -21 95 0
-3 21 95 0
-94 -95 0
4 36 -96 0
-4 -36 -96 0
4 -36 96 0
-4 36 96 0
-94 -96 0
5 34 -97 0
-5 -34 -97 0
5 -34 97 0
-5 34 97 0
-94 -97 0
6 32 -98 0
-6 -32 -98 0
6 -32 98 0
-6 32 98 0
-94 -98 0
7 30 -99 0
-7 -30 -99 0
7 -30 99 0
-7 30 99 0
-94 -99 0
-94 -48 0
9 26 -100 0
-9 -26 -100 0
9 -26 100 0
-9 26 100 0
-94 -100 0
10 24 -101 0
-10 -24 -101 0
10 -24 101 0
-10 24 101 0
-94 -101 0
11 39 -102 0
-11 -39 -102 0
11 -39 102 0
-11 39 102 0
-94 -102 0
12 37 -103 0
-12 -37 -103 0
12 -37 103 0
-12 37 103 0
-94 -103 0
13 35 -104 0
-13 -35 -104 0
13 -35 104 0
-13 35 104 0
-94 -104 0
14 33 -105 0
-14 -33 -105 0
14 -33 105 0
-14 33 105 0
-94 -105 0
15 31 -106 0
-15 -31 -106 0
15 -31 106 0
-15 31 106 0
-94 -106 0
16 29 -107 0
-16 -29 -107 0
16 -29 107 0
-16 29 107 0
-94 -107 0
17 27 -108 0
-17 -27 -108 0
17 -27 108 0
-17 27 108 0
-94 -108 0
18 25 -109 0
-18 -25 -109 0
18 -25 109 0
-18 25 109 0
-94 -109 0
-94 -81 0
20 38 -110 0
-20 -38 -110 0
20 -38 110 0
-20 38 110 0
-94 -110 0
-111 -65 0
3 38 -112 0
-3 -38 -112 0
3 -38 112 0
-3 38 112 0
-111 -112 0
-111 -96 0
-111 -97 0
-111 -98 0
-111 -99 0
-111 -48 0
-111 -100 0
-111 -101 0
-111 -102 0
-111 -103 0
-111 -104 0
-111 -105 0
-111 -106 0
-111 -107 0
-111 -108 0
-111 -109 0
-111 -81 0
20 21 -113 0
-20 -21 -113 0
20 -21 113 0
-20 21 113 0
-111 -113 0
2 21 -115 0
-2 -21 -115 0
2 -21 115 0
-2 21 115 0
-114 -115 0
-114 -43 0
4 25 -116 0
-4 -25 -116 0
4 -25 116 0
-4 25 116 0
-114 -116 0
5 27 -117 0
-5 -27 -117 0
5 -27 117 0
-5 27 117 0
-114 -117 0
6 29 -118 0
-6 -29 -118 0
6 -29 118 0
-6 29 118 0
-114 -118 0
7 31 -119 0
-7 -31 -119 0
7 -31 119 0
-7 31 119 0
-114 -119 0
8 33 -120 0
-8 -33 -120 0
8 -33 120 0
-8 33 120 0
-114 -120 0
9 35 -121 0
-9 -35 -121 0
9 -35 121 0
-9 35 121 0
-114 -121 0
10 37 -122 0
-10 -37 -122 0
10 -37 122 0
-10 37 122 0
-114 -122 0
-114 -102 0
12 24 -123 0
-12 -24 -123 0
12 -24 123 0
-12 24 123 0
-114 -123 0
13 26 -124 0
-13 -26 -124 0
13 -26 124 0
-13 26 124 0
-114 -124 0
-114 -76 0
15 30 -125 0
-15 -30 -125 0
15 -30 125 0
-15 30 125 0
-114 -125 0
16 32 -126 0
-16 -32 -126 0
16 -32 126 0
-16 32 126 0
-114 -126 0
17 34 -127 0
-17 -34 -127 0
17 -34 127 0
-17 34 127 0
-114 -127 0
18 36 -128 0
-18 -36 -128 0
18 -36 128 0
-18 36 128 0
-114 -128 0
19 38 -129 0
-19 -38 -129 0
19 -38 129 0
-19 38 129 0
-114 -129 0
-114 -60 0
-130 -115 0
-130 -62 0
-130 -116 0
-130 -117 0
-130 -118 0
-130 -119 0
-130 -120 0
-130 -121 0
-130 -122 0
-130 -102 0
-130 -123 0
-130 -124 0
-130 -76 0
-130 -125 0
-130 -126 0
-130 -127 0
-130 -128 0
-130 -129 0
-130 -63 0
-131 -91 0
-131 -95 0
-131 -96 0
-131 -97 0
-131 -98 0
-131 -99 0
-131 -48 0
-131 -100 0
-131 -101 0
-131 -102 0
-131 -103 0
-131 -104 0
-131 -105 0
-131 -106 0
-131 -107 0
-131 -108 0
-131 -109 0
-131 -92 0
-131 -110 0
-132 -91 0
-132 -112 0
-132 -96 0
-132 -97 0
-132 -98 0
-132 -99 0
-132 -48 0
-132 -100 0
-132 -101 0
-132 -102 0
-132 -103 0
-132 -104 0
-132 -105 0
-132 -106 0
-132 -107 0
-132 -108 0
-132 -109 0
-132 -92 0
-132 -113 0
2 38 -134 0
-2 -38 -134 0
2 -38 134 0
-2 38 134 0
-133 -134 0
-133 -43 0
-133 -116 0
-133 -117 0
-133 -118 0
-133 -119 0
-133 -120 0
-133 -121 0
-133 -122 0
-133 -102 0
-133 -123 0
-133 -124 0
-133 -76 0
-133 -125 0
-133 -126 0
-133 -127 0
-133 -128 0
19 21 -135 0
-19 -21 -135 0
19 -21 135 0
-19 21 135 0
-133 -135 0
-133 -60 0
-136 -134 0
-136 -62 0
-136 -116 0
-136 -117 0
-136 -118 0
-136 -119 0
-136 -120 0
-136 -121 0
-136 -122 0
-136 -102 0
-136 -123 0
-136 -124 0
-136 -76 0
-136 -125 0
-136 -126 0
-136 -127 0
-136 -128 0
-136 -135 0
-136 -63 0
-137 -115 0
-137 -66 0
4 40 -138 0
-4 -40 -138 0
4 -40 138 0
-4 40 138 0
-137 -138 0
5 24 -139 0
-5 -24 -139 0
5 -24 139 0
-5 24 139 0
-137 -139 0
6 25 -140 0
-6 -25 -140 0
6 -25 140 0
-6 25 140 0
-137 -140 0
7 26 -141 0
-7 -26 -141 0
7 -26 141 0
-7 26 141 0
-137 -141 0
8 27 -142 0
-8 -27 -142 0
8 -27 142 0
-8 27 142 0
-137 -142 0
9 28 -143 0
-9 -28 -143 0
9 -28 143 0
-9 28 143 0
-137 -143 0
10 29 -144 0
-10 -29 -144 0
10 -29 144 0
-10 29 144 0
-137 -144 0
11 30 -145 0
-11 -30 -145 0
11 -30 145 0
-11 30 145 0
-137 -145 0
12 31 -146 0
-12 -31 -146 0
12 -31 146 0
-12 31 146 0
-137 -146 0
13 32 -147 0
-13 -32 -147 0
13 -32 147 0
-13 32 147 0
-137 -147 0
-137 -105 0
15 34 -148 0
-15 -34 -148 0
15 -34 148 0
-15 34 148 0
-137 -148 0
16 35 -149 0
-16 -35 -149 0
16 -35 149 0
-16 35 149 0
-137 -149 0
17 36 -150 0
-17 -36 -150 0
17 -36 150 0
-17 36 150 0
-137 -150 0
18 37 -151 0
-18 -37 -151 0
18 -37 151 0
-18 37 151 0
-137 -151 0
-137 -129 0
-137 -82 0
-152 -115 0
-152 -84 0
-152 -138 0
-152 -139 0
-152 -140 0
-152 -141 0
-152 -142 0
-152 -143 0
-152 -144 0
-152 -145 0
-152 -146 0
-152 -147 0
-152 -105 0
-152 -148 0
-152 -149 0
-152 -150 0
-152 -151 0
-152 -129 0
-152 -85 0
-153 -42 0
-153 -95 0
4 37 -154 0
-4 -37 -154 0
4 -37 154 0
-4 37 154 0
-153 -154 0
5 36 -155 0
-5 -36 -155 0
5 -36 155 0
-5 36 155 0
-153 -155 0
6 35 -156 0
-6 -35 -156 0
6 -35 156 0
-6 35 156 0
-153 -156 0
7 34 -157 0
-7 -34 -157 0
7 -34 157 0
-7 34 157 0
-153 -157 0
-153 -120 0
9 32 -158 0
-9 -32 -158 0
9 -32 158 0
-9 32 158 0
-153 -158 0
10 31 -159 0
-10 -31 -159 0
10 -31 159 0
-10 31 159 0
-153 -159 0
-153 -145 0
12 29 -160 0
-12 -29 -160 0
12 -29 160 0
-12 29 160 0
-153 -160 0
13 28 -161 0
-13 -28 -161 0
13 -28 161 0
-13 28 161 0
-153 -161 0
14 27 -162 0
-14 -27 -162 0
14 -27 162 0
-14 27 162 0
-153 -162 0
15 26 -163 0
-15 -26 -163 0
15 -26 163 0
-15 26 163 0
-153 -163 0
16 25 -164 0
-16 -25 -164 0
16 -25 164 0
-16 25 164 0
-153 -164 0
17 24 -165 0
-17 -24 -165 0
17 -24 165 0
-17 24 165 0
-153 -165 0
18 40 -166 0
-18 -40 -166 0
18 -40 166 0
-18 40 166 0
-153 -166 0
-153 -59 0
-153 -110 0
-167 -42 0
-167 -112 0
-167 -154 0
-167 -155 0
-167 -156 0
-167 -157 0
-167 -120 0
-167 -158 0
-167 -159 0
-167 -145 0
-167 -160 0
-167 -161 0
-167 -162 0
-167 -163 0
-167 -164 0
-167 -165 0
-167 -166 0
-167 -59 0
-167 -113 0
-168 -134 0
-168 -66 0
-168 -138 0
-168 -139 0
-168 -140 0
-168 -141 0
-168 -142 0
-168 -143 0
-168 -144 0
-168 -145 0
-168 -146 0
-168 -147 0
-168 -105 0
-168 -148 0
-168 -149 0
-168 -150 0
-168 -151 0
-168 -135 0
-168 -82 0
-169 -134 0
-169 -84 0
-169 -138 0
-169 -139 0
-169 -140 0
-169 -141 0
-169 -142 0
-169 -143 0
-169 -144 0
-169 -145 0
-169 -146 0
-169 -147 0
-169 -105 0
-169 -148 0
-169 -149 0
-169 -150 0
-169 -151 0
-169 -135 0
-169 -85 0
-170 -87 0
-170 -95 0
-170 -154 0
-170 -155 0
-170 -156 0
-170 -157 0
-170 -120 0
-170 -158 0
-170 -159 0
-170 -145 0
-170 -160 0
-170 -161 0
-170 -162 0
-170 -163 0
-170 -164 0
-170 -165 0
-170 -166 0
-170 -88 0
-170 -110 0
-171 -87 0
-171 -112 0
-171 -154 0
-171 -155 0
-171 -156 0
-171 -157 0
-171 -120 0
-171 -158 0
-171 -159 0
-171 -145 0
-171 -160 0
-171 -161 0
-171 -162 0
-171 -163 0
-171 -164 0
-171 -165 0
-171 -166 0
-171 -88 0
-171 -113 0
-172 -42 0
-172 -43 0
-172 -44 0
-172 -45 0
-172 -46 0
-172 -47 0
-172 -48 0
-172 -49 0
-172 -50 0
-172 -51 0
-172 -52 0
-172 -53 0
-172 -54 0
-172 -55 0
-172 -56 0
-172 -57 0
18 21 -173 0
-18 -21 -173 0
18 -21 173 0
-18 21 173 0
-172 -173 0
-172 -59 0
-172 -60 0
-174 -42 0
-174 -62 0
-174 -44 0
-174 -45 0
-174 -46 0
-174 -47 0
-174 -48 0
-174 -49 0
-174 -50 0
-174 -51 0
-174 -52 0
-174 -53 0
-174 -54 0
-174 -55 0
-174 -56 0
-174 -57 0
-174 -173 0
-174 -59 0
-174 -63 0
-175 -65 0
-175 -66 0
4 21 -176 0
-4 -21 -176 0
4 -21 176 0
-4 21 176 0
-175 -176 0
-175 -68 0
-175 -69 0
-175 -70 0
-175 -71 0
-175 -72 0
-175 -73 0
-175 -51 0
-175 -74 0
-175 -75 0
-175 -76 0
-175 -77 0
-175 -78 0
-175 -79 0
-175 -80 0
-175 -81 0
-175 -82 0
-177 -65 0
-177 -84 0
-177 -176 0
-177 -68 0
-177 -69 0
-177 -70 0
-177 -71 0
-177 -72 0
-177 -73 0
-177 -51 0
-177 -74 0
-177 -75 0
-177 -76 0
-177 -77 0
-177 -78 0
-177 -79 0
-177 -80 0
-177 -81 0
-177 -85 0
-178 -87 0
-178 -43 0
-178 -44 0
-178 -45 0
-178 -46 0
-178 -47 0
-178 -48 0
-178 -49 0
-178 -50 0
-178 -51 0
-178 -52 0
-178 -53 0
-178 -54 0
-178 -55 0
-178 -56 0
-178 -57 0
-178 -173 0
-178 -88 0
-178 -60 0
-179 -87 0
-179 -62 0
-179 -44 0
-179 -45 0
-179 -46 0
-179 -47 0
-179 -48 0
-179 -49 0
-179 -50 0
-179 -51 0
-179 -52 0
-179 -53 0
-179 -54 0
-179 -55 0
-179 -56 0
-179 -57 0
-179 -173 0
-179 -88 0
-179 -63 0
-180 -91 0
-180 -66 0
-180 -176 0
-180 -68 0
-180 -69 0
-180 -70 0
-180 -71 0
-180 -72 0
-180 -73 0
-180 -51 0
-180 -74 0
-180 -75 0
-180 -76 0
-180 -77 0
-180 -78 0
-180 -79 0
-180 -80 0
-180 -92 0
-180 -82 0
-181 -91 0
-181 -84 0
-181 -176 0
-181 -68 0
-181 -69 0
-181 -70 0
-181 -71 0
-181 -72 0
-181 -73 0
-181 -51 0
-181 -74 0
-181 -75 0
-181 -76 0
-181 -77 0
-181 -78 0
-181 -79 0
-181 -80 0
-181 -92 0
-181 -85 0
-182 -65 0
-182 -95 0
-182 -96 0
-182 -97 0
-182 -98 0
-182 -99 0
-182 -48 0
-182 -100 0
-182 -101 0
11 22 -183 0
-11 -22 -183 0
11 -22 183 0
-11 22 183 0
-182 -183 0
-182 -103 0
-182 -104 0
-182 -105 0
-182 -106 0
-182 -107 0
-182 -108 0
-182 -109 0
-182 -81 0
-182 -110 0
-184 -65 0
-184 -112 0
-184 -96 0
-184 -97 0
-184 -98 0
-184 -99 0
-184 -48 0
-184 -100 0
-184 -101 0
-184 -183 0
-184 -103 0
-184 -104 0
-184 -105 0
-184 -106 0
-184 -107 0
-184 -108 0
-184 -109 0
-184 -81 0
-184 -113 0
-185 -115 0
-185 -43 0
-185 -116 0
-185 -117 0
-185 -118 0
-185 -119 0
-185 -120 0
-185 -121 0
-185 -122 0
-185 -183 0
-185 -123 0
-185 -124 0
-185 -76 0
-185 -125 0
-185 -126 0
-185 -127 0
-185 -128 0
-185 -129 0
-185 -60 0
-186 -115 0
-186 -62 0
-186 -116 0
-186 -117 0
-186 -118 0
-186 -119 0
-186 -120 0
-186 -121 0
-186 -122 0
-186 -183 0
-186 -123 0
-186 -124 0
-186 -76 0
-186 -125 0
-186 -126 0
-186 -127 0
-186 -128 0
-186 -129 0
-186 -63 0
-187 -91 0
-187 -95 0
-187 -96 0
-187 -97 0
-187 -98 0
-187 -99 0
-187 -48 0
-187 -100 0
-187 -101 0
-187 -183 0
-187 -103 0
-187 -104 0
-187 -105 0
-187 -106 0
-187 -107 0
-187 -108 0
-187 -109 0
-187 -92 0
-187 -110 0
-188 -91 0
-188 -112 0
-188 -96 0
-188 -97 0
-188 -98 0
-188 -99 0
-188 -48 0
-188 -100 0
-188 -101 0
-188 -183 0
-188 -103 0
-188 -104 0
-188 -105 0
-188 -106 0
-188 -107 0
-188 -108 0
-188 -109 0
-188 -92 0
-188 -113 0
-189 -134 0
-189 -43 0
-189 -116 0
-189 -117 0
-189 -118 0
-189 -119 0
-189 -120 0
-189 -121 0
-189 -122 0
-189 -183 0
-189 -123 0
-189 -124 0
-189 -76 0
-189 -125 0
-189 -126 0
-189 -127 0
-189 -128 0
-189 -135 0
-189 -60 0
-190 -134 0
-190 -62 0
-190 -116 0
-190 -117 0
-190 -118 0
-190 -119 0
-190 -120 0
-190 -121 0
-190 -122 0
-190 -183 0
-190 -123 0
-190 -124 0
-190 -76 0
-190 -125 0
-190 -126 0
-190 -127 0
-190 -128 0
-190 -135 0
-190 -63 0
-191 -115 0
-191 -66 0
4 23 -192 0
-4 -23 -192 0
4 -23 192 0
-4 23 192 0
-191 -192 0
-191 -139 0
-191 -140 0
-191 -141 0
-191 -142 0
-191 -143 0
-191 -144 0
-191 -145 0
-191 -146 0
-191 -147 0
-191 -105 0
-191 -148 0
-191 -149 0
-191 -150 0
-191 -151 0
-191 -129 0
-191 -82 0
-193 -115 0
-193 -84 0
-193 -192 0
-193 -139 0
-193 -140 0
-193 -141 0
-193 -142 0
-193 -143 0
-193 -144 0
-193 -145 0
-193 -146 0
-193 -147 0
-193 -105 0
-193 -148 0
-193 -149 0
-193 -150 0
-193 -151 0
-193 -129 0
-193 -85 0
-194 -42 0
-194 -95 0
-194 -154 0
-194 -155 0
-194 -156 0
-194 -157 0
-194 -120 0
-194 -158 0
-194 -159 0
-194 -145 0
-194 -160 0
-194 -161 0
-194 -162 0
-194 -163 0
-194 -164 0
-194 -165 0
18 23 -195 0
-18 -23 -195 0
18 -23 195 0
-18 23 195 0
-194 -195 0
-194 -59 0
-194 -110 0
-196 -42 0
-196 -112 0
-196 -154 0
-196 -155 0
-196 -156 0
-196 -157 0
-196 -120 0
-196 -158 0
-196 -159 0
-196 -145 0
-196 -160 0
-196 -161 0
-196 -162 0
-196 -163 0
-196 -164 0
-196 -165 0
-196 -195 0
-196 -59 0
-196 -113 0
-197 -134 0
-197 -66 0
-197 -192 0
-197 -139 0
-197 -140 0
-197 -141 0
-197 -142 0
-197 -143 0
-197 -144 0
-197 -145 0
-197 -146 0
-197 -147 0
-197 -105 0
-197 -148 0
-197 -149 0
-197 -150 0
-197 -151 0
-197 -135 0
-197 -82 0
-198 -134 0
-198 -84 0
-198 -192 0
-198 -139 0
-198 -140 0
-198 -141 0
-198 -142 0
-198 -143 0
-198 -144 0
-198 -145 0
-198 -146 0
-198 -147 0
-198 -105 0
-198 -148 0
-198 -149 0
-198 -150 0
-198 -151 0
-198 -135 0
-198 -85 0
-199 -87 0
-199 -95 0
-199 -154 0
-199 -155 0
-199 -156 0
-199 -157 0
-199 -120 0
-199 -158 0
-199 -159 0
-199 -145 0
-199 -160 0
-199 -161 0
-199 -162 0
-199 -163 0
-199 -164 0
-199 -165 0
-199 -195 0
-199 -88 0
-199 -110 0
-200 -87 0
-200 -112 0
-200 -154 0
-200 -155 0
-200 -156 0
-200 -157 0
-200 -120 0
-200 -158 0
-200 -159 0
-200 -145 0
-200 -160 0
-200 -161 0
-200 -162 0
-200 -163 0
-200 -164 0
-200 -165 0
-200 -195 0
-200 -88 0
-200 -113 0
1 23 -202 0
-1 -23 -202 0
1 -23 202 0
-1 23 202 0
-201 -202 0
-201 -66 0
4 30 -203 0
-4 -30 -203 0
4 -30 203 0
-4 30 203 0
-201 -203 0
5 38 -204 0
-5 -38 -204 0
5 -38 204 0
-5 38 204 0
-201 -204 0
-201 -118 0
7 37 -205 0
-7 -37 -205 0
7 -37 205 0
-7 37 205 0
-201 -205 0
-201 -48 0
9 36 -206 0
-9 -36 -206 0
9 -36 206 0
-9 36 206 0
-201 -206 0
10 27 -207 0
-10 -27 -207 0
10 -27 207 0
-10 27 207 0
-201 -207 0
11 35 -208 0
-11 -35 -208 0
11 -35 208 0
-11 35 208 0
-201 -208 0
12 26 -209 0
-12 -26 -209 0
12 -26 209 0
-12 26 209 0
-201 -209 0
13 34 -210 0
-13 -34 -210 0
13 -34 210 0
-13 34 210 0
-201 -210 0
14 25 -211 0
-14 -25 -211 0
14 -25 211 0
-14 25 211 0
-201 -211 0
15 33 -212 0
-15 -33 -212 0
15 -33 212 0
-15 33 212 0
-201 -212 0
16 24 -213 0
-16 -24 -213 0
16 -24 213 0
-16 24 213 0
-201 -213 0
17 32 -214 0
-17 -32 -214 0
17 -32 214 0
-17 32 214 0
-201 -214 0
-201 -166 0
19 31 -215 0
-19 -31 -215 0
19 -31 215 0
-19 31 215 0
-201 -215 0
-201 -82 0
-216 -202 0
-216 -84 0
-216 -203 0
-216 -204 0
-216 -118 0
-216 -205 0
-216 -48 0
-216 -206 0
-216 -207 0
-216 -208 0
-216 -209 0
-216 -210 0
-216 -211 0
-216 -212 0
-216 -213 0
-216 -214 0
-216 -166 0
-216 -215 0
-216 -85 0
1 22 -218 0
-1 -22 -218 0
1 -22 218 0
-1 22 218 0
-217 -218 0
-217 -43 0
4 32 -219 0
-4 -32 -219 0
4 -32 219 0
-4 32 219 0
-217 -219 0
-217 -139 0
6 33 -220 0
-6 -33 -220 0
6 -33 220 0
-6 33 220 0
-217 -220 0
7 25 -221 0
-7 -25 -221 0
7 -25 221 0
-7 25 221 0
-217 -221 0
-217 -71 0
-217 -100 0
10 35 -222 0
-10 -35 -222 0
10 -35 222 0
-10 35 222 0
-217 -222 0
11 27 -223 0
-11 -27 -223 0
11 -27 223 0
-11 27 223 0
-217 -223 0
12 36 -224 0
-12 -36 -224 0
12 -36 224 0
-12 36 224 0
-217 -224 0
-217 -161 0
14 37 -225 0
-14 -37 -225 0
14 -37 225 0
-14 37 225 0
-217 -225 0
15 29 -226 0
-15 -29 -226 0
15 -29 226 0
-15 29 226 0
-217 -226 0
16 38 -227 0
-16 -38 -227 0
16 -38 227 0
-16 38 227 0
-217 -227 0
17 30 -228 0
-17 -30 -228 0
17 -30 228 0
-17 30 228 0
-217 -228 0
18 39 -229 0
-18 -39 -229 0
18 -39 229 0
-18 39 229 0
-217 -229 0
-217 -215 0
-217 -60 0
-230 -218 0
-230 -62 0
-230 -219 0
-230 -139 0
-230 -220 0
-230 -221 0
-230 -71 0
-230 -100 0
-230 -222 0
-230 -223 0
-230 -224 0
-230 -161 0
-230 -225 0
-230 -226 0
-230 -227 0
-230 -228 0
-230 -229 0
-230 -215 0
-230 -63 0
1 40 -232 0
-1 -40 -232 0
1 -40 232 0
-1 40 232 0
-231 -232 0
-231 -66 0
-231 -203 0
-231 -204 0
-231 -118 0
-231 -205 0
-231 -48 0
-231 -206 0
-231 -207 0
-231 -208 0
-231 -209 0
-231 -210 0
-231 -211 0
-231 -212 0
-231 -213 0
-231 -214 0
-231 -195 0
-231 -215 0
-231 -82 0
-233 -232 0
-233 -84 0
-233 -203 0
-233 -204 0
-233 -118 0
-233 -205 0
-233 -48 0
-233 -206 0
-233 -207 0
-233 -208 0
-233 -209 0
-233 -210 0
-233 -211 0
-233 -212 0
-233 -213 0
-233 -214 0
-233 -195 0
-233 -215 0
-233 -85 0
1 39 -235 0
-1 -39 -235 0
1 -39 235 0
-1 39 235 0
-234 -235 0
-234 -43 0
-234 -219 0
-234 -139 0
-234 -220 0
-234 -221 0
-234 -71 0
-234 -100 0
-234 -222 0
-234 -223 0
-234 -224 0
-234 -161 0
-234 -225 0
-234 -226 0
-234 -227 0
-234 -228 0
18 22 -236 0
-18 -22 -236 0
18 -22 236 0
-18 22 236 0
-234 -236 0
-234 -215 0
-234 -60 0
-237 -235 0
-237 -62 0
-237 -219 0
-237 -139 0
-237 -220 0
-237 -221 0
-237 -71 0
-237 -100 0
-237 -222 0
-237 -223 0
-237 -224 0
-237 -161 0
-237 -225 0
-237 -226 0
-237 -227 0
-237 -228 0
-237 -236 0
-237 -215 0
-237 -63 0
1 21 -239 0
-1 -21 -239 0
1 -21 239 0
-1 21 239 0
-238 -239 0
-238 -43 0
-238 -44 0
-238 -45 0
-238 -46 0
-238 -47 0
-238 -48 0
-238 -49 0
-238 -50 0
-238 -51 0
-238 -52 0
-238 -53 0
-238 -54 0
-238 -55 0
-238 -56 0
-238 -57 0
-238 -58 0
-238 -59 0
-238 -60 0
-240 -239 0
-240 -62 0
-240 -44 0
-240 -45 0
-240 -46 0
-240 -47 0
-240 -48 0
-240 -49 0
-240 -50 0
-240 -51 0
-240 -52 0
-240 -53 0
-240 -54 0
-240 -55 0
-240 -56 0
-240 -57 0
-240 -58 0
-240 -59 0
-240 -63 0
-241 -202 0
-241 -95 0
-241 -154 0
-241 -155 0
-241 -156 0
-241 -157 0
-241 -120 0
-241 -158 0
-241 -159 0
-241 -145 0
-241 -160 0
-241 -161 0
-241 -162 0
-241 -163 0
-241 -164 0
-241 -165 0
-241 -166 0
-241 -59 0
-241 -110 0
-242 -202 0
-242 -112 0
-242 -154 0
-242 -155 0
-242 -156 0
-242 -157 0
-242 -120 0
-242 -158 0
-242 -159 0
-242 -145 0
-242 -160 0
-242 -161 0
-242 -162 0
-242 -163 0
-242 -164 0
-242 -165 0
-242 -166 0
-242 -59 0
-242 -113 0
1 38 -244 0
-1 -38 -244 0
1 -38 244 0
-1 38 244 0
-243 -244 0
-243 -43 0
-243 -44 0
-243 -45 0
-243 -46 0
-243 -47 0
-243 -48 0
-243 -49 0
-243 -50 0
-243 -51 0
-243 -52 0
-243 -53 0
-243 -54 0
-243 -55 0
-243 -56 0
-243 -57 0
-243 -173 0
-243 -59 0
-243 -60 0
-245 -244 0
-245 -62 0
-245 -44 0
-245 -45 0
-245 -46 0
-245 -47 0
-245 -48 0
-245 -49 0
-245 -50 0
-245 -51 0
-245 -52 0
-245 -53 0
-245 -54 0
-245 -55 0
-245 -56 0
-245 -57 0
-245 -173 0
-245 -59 0
-245 -63 0
-246 -232 0
-246 -95 0
-246 -154 0
-246 -155 0
-246 -156 0
-246 -157 0
-246 -120 0
-246 -158 0
-246 -159 0
-246 -145 0
-246 -160 0
-246 -161 0
-246 -162 0
-246 -163 0
-246 -164 0
-246 -165 0
-246 -195 0
-246 -59 0
-246 -110 0
-247 -232 0
-247 -112 0
-247 -154 0
-247 -155 0
-247 -156 0
-247 -157 0
-247 -120 0
-247 -158 0
-247 -159 0
-247 -145 0
-247 -160 0
-247 -161 0
-247 -162 0
-247 -163 0
-247 -164 0
-247 -165 0
-247 -195 0
-247 -59 0
-247 -113 0
-248 -218 0
-248 -95 0
4 29 -249 0
-4 -29 -249 0
4 -29 249 0
-4 29 249 0
-248 -249 0
-248 -68 0
6 28 -250 0
-6 -28 -250 0
6 -28 250 0
-6 28 250 0
-248 -250 0
7 36 -251 0
-7 -36 -251 0
7 -36 251 0
-7 36 251 0
-248 -251 0
-248 -142 0
-248 -121 0
10 26 -252 0
-10 -26 -252 0
10 -26 252 0
-10 26 252 0
-248 -252 0
11 34 -253 0
-11 -34 -253 0
11 -34 253 0
-11 34 253 0
-248 -253 0
12 25 -254 0
-12 -25 -254 0
12 -25 254 0
-12 25 254 0
-248 -254 0
-248 -53 0
14 24 -255 0
-14 -24 -255 0
14 -24 255 0
-14 24 255 0
-248 -255 0
15 32 -256 0
-15 -32 -256 0
15 -32 256 0
-15 32 256 0
-248 -256 0
16 40 -257 0
-16 -40 -257 0
16 -40 257 0
-16 40 257 0
-248 -257 0
17 31 -258 0
-17 -31 -258 0
17 -31 258 0
-17 31 258 0
-248 -258 0
-248 -229 0
19 30 -259 0
-19 -30 -259 0
19 -30 259 0
-19 30 259 0
-248 -259 0
-248 -110 0
-260 -218 0
-260 -112 0
-260 -249 0
-260 -68 0
-260 -250 0
-260 -251 0
-260 -142 0
-260 -121 0
-260 -252 0
-260 -253 0
-260 -254 0
-260 -53 0
-260 -255 0
-260 -256 0
-260 -257 0
-260 -258 0
-260 -229 0
-260 -259 0
-260 -113 0
-261 -239 0
-261 -66 0
4 31 -262 0
-4 -31 -262 0
4 -31 262 0
-4 31 262 0
-261 -262 0
5 40 -263 0
-5 -40 -263 0
5 -40 263 0
-5 40 263 0
-261 -263 0
-261 -98 0
7 24 -264 0
-7 -24 -264 0
7 -24 264 0
-7 24 264 0
-261 -264 0
-261 -120 0
9 25 -265 0
-9 -25 -265 0
9 -25 265 0
-9 25 265 0
-261 -265 0
10 34 -266 0
-10 -34 -266 0
10 -34 266 0
-10 34 266 0
-261 -266 0
11 26 -267 0
-11 -26 -267 0
11 -26 267 0
-11 26 267 0
-261 -267 0
12 35 -268 0
-12 -35 -268 0
12 -35 268 0
-12 35 268 0
-261 -268 0
13 27 -269 0
-13 -27 -269 0
13 -27 269 0
-13 27 269 0
-261 -269 0
14 36 -270 0
-14 -36 -270 0
14 -36 270 0
-14 36 270 0
-261 -270 0
15 28 -271 0
-15 -28 -271 0
15 -28 271 0
-15 28 271 0
-261 -271 0
16 37 -272 0
-16 -37 -272 0
16 -37 272 0
-16 37 272 0
-261 -272 0
17 29 -273 0
-17 -29 -273 0
17 -29 273 0
-17 29 273 0
-261 -273 0
-261 -58 0
-261 -259 0
-261 -82 0
-274 -239 0
-274 -84 0
-274 -262 0
-274 -263 0
-274 -98 0
-274 -264 0
-274 -120 0
-274 -265 0
-274 -266 0
-274 -267 0
-274 -268 0
-274 -269 0
-274 -270 0
-274 -271 0
-274 -272 0
-274 -273 0
-274 -58 0
-274 -259 0
-274 -85 0
-275 -235 0
-275 -95 0
-275 -249 0
-275 -68 0
-275 -250 0
-275 -251 0
-275 -142 0
-275 -121 0
-275 -252 0
-275 -253 0
-275 -254 0
-275 -53 0
-275 -255 0
-275 -256 0
-275 -257 0
-275 -258 0
-275 -236 0
-275 -259 0
-275 -110 0
-276 -235 0
-276 -112 0
-276 -249 0
-276 -68 0
-276 -250 0
-276 -251 0
-276 -142 0
-276 -121 0
-276 -252 0
-276 -253 0
-276 -254 0
-276 -53 0
-276 -255 0
-276 -256 0
-276 -257 0
-276 -258 0
-276 -236 0
-276 -259 0
-276 -113 0
-277 -244 0
-277 -66 0
-277 -262 0
-277 -263 0
-277 -98 0
-277 -264 0
-277 -120 0
-277 -265 0
-277 -266 0
-277 -267 0
-277 -268 0
-277 -269 0
-277 -270 0
-277 -271 0
-277 -272 0
-277 -273 0
-277 -173 0
-277 -259 0
-277 -82 0
-278 -244 0
-278 -84 0
-278 -262 0
-278 -263 0
-278 -98 0
-278 -264 0
-278 -120 0
-278 -265 0
-278 -266 0
-278 -267 0
-278 -268 0
-278 -269 0
-278 -270 0
-278 -271 0
-278 -272 0
-278 -273 0
-278 -173 0
-278 -259 0
-278 -85 0
-279 -202 0
-279 -66 0
-279 -203 0
5 21 -280 0
-5 -21 -280 0
5 -21 280 0
-5 21 280 0
-279 -280 0
-279 -118 0
-279 -205 0
-279 -48 0
-279 -206 0
-279 -207 0
-279 -208 0
-279 -209 0
-279 -210 0
-279 -211 0
-279 -212 0
-279 -213 0
-279 -214 0
-279 -166 0
-279 -215 0
-279 -82 0
-281 -202 0
-281 -84 0
-281 -203 0
-281 -280 0
-281 -118 0
-281 -205 0
-281 -48 0
-281 -206 0
-281 -207 0
-281 -208 0
-281 -209 0
-281 -210 0
-281 -211 0
-281 -212 0
-281 -213 0
-281 -214 0
-281 -166 0
-281 -215 0
-281 -85 0
-282 -218 0
-282 -43 0
-282 -219 0
-282 -139 0
-282 -220 0
-282 -221 0
-282 -71 0
-282 -100 0
-282 -222 0
-282 -223 0
-282 -224 0
-282 -161 0
-282 -225 0
-282 -226 0
16 21 -283 0
-16 -21 -283 0
16 -21 283 0
-16 21 283 0
-282 -283 0
-282 -228 0
-282 -229 0
-282 -215 0
-282 -60 0
-284 -218 0
-284 -62 0
-284 -219 0
-284 -139 0
-284 -220 0
-284 -221 0
-284 -71 0
-284 -100 0
-284 -222 0
-284 -223 0
-284 -224 0
-284 -161 0
-284 -225 0
-284 -226 0
-284 -283 0
-284 -228 0
-284 -229 0
-284 -215 0
-284 -63 0
-285 -232 0
-285 -66 0
-285 -203 0
-285 -280 0
-285 -118 0
-285 -205 0
-285 -48 0
-285 -206 0
-285 -207 0
-285 -208 0
-285 -209 0
-285 -210 0
-285 -211 0
-285 -212 0
-285 -213 0
-285 -214 0
-285 -195 0
-285 -215 0
-285 -82 0
-286 -232 0
-286 -84 0
-286 -203 0
-286 -280 0
-286 -118 0
-286 -205 0
-286 -48 0
-286 -206 0
-286 -207 0
-286 -208 0
-286 -209 0
-286 -210 0
-286 -211 0
-286 -212 0
-286 -213 0
-286 -214 0
-286 -195 0
-286 -215 0
-286 -85 0
-287 -235 0
-287 -43 0
-287 -219 0
-287 -139 0
-287 -220 0
-287 -221 0
-287 -71 0
-287 -100 0
-287 -222 0
-287 -223 0
-287 -224 0
-287 -161 0
-287 -225 0
-287 -226 0
-287 -283 0
-287 -228 0
-287 -236 0
-287 -215 0
-287 -60 0
-288 -235 0
-288 -62 0
-288 -219 0
-288 -139 0
-288 -220 0
-288 -221 0
-288 -71 0
-288 -100 0
-288 -222 0
-288 -223 0
-288 -224 0
-288 -161 0
-288 -225 0
-288 -226 0
-288 -283 0
-288 -228 0
-288 -236 0
-288 -215 0
-288 -63 0
-289 -239 0
-289 -43 0
-289 -44 0
-289 -45 0
-289 -46 0
-289 -47 0
-289 -48 0
-289 -49 0
-289 -50 0
-289 -51 0
-289 -52 0
-289 -53 0
-289 -54 0
-289 -55 0
-289 -56 0
-289 -57 0
-289 -58 0
-289 -88 0
-289 -60 0
-290 -239 0
-290 -62 0
-290 -44 0
-290 -45 0
-290 -46 0
-290 -47 0
-290 -48 0
-290 -49 0
-290 -50 0
-290 -51 0
-290 -52 0
-290 -53 0
-290 -54 0
-290 -55 0
-290 -56 0
-290 -57 0
-290 -58 0
-290 -88 0
-290 -63 0
-291 -202 0
-291 -95 0
-291 -154 0
-291 -155 0
-291 -156 0
-291 -157 0
-291 -120 0
-291 -158 0
-291 -159 0
-291 -145 0
-291 -160 0
-291 -161 0
-291 -162 0
-291 -163 0
-291 -164 0
-291 -165 0
-291 -166 0
-291 -88 0
-291 -110 0
-292 -202 0
-292 -112 0
-292 -154 0
-292 -155 0
-292 -156 0
-292 -157 0
-292 -120 0
-292 -158 0
-292 -159 0
-292 -145 0
-292 -160 0
-292 -161 0
-292 -162 0
-292 -163 0
-292 -164 0
-292 -165 0
-292 -166 0
-292 -88 0
-292 -113 0
-293 -244 0
-293 -43 0
-293 -44 0
-293 -45 0
-293 -46 0
-293 -47 0
-293 -48 0
-293 -49 0
-293 -50 0
-293 -51 0
-293 -52 0
-293 -53 0
-293 -54 0
-293 -55 0
-293 -56 0
-293 -57 0
-293 -173 0
-293 -88 0
-293 -60 0
-294 -244 0
-294 -62 0
-294 -44 0
-294 -45 0
-294 -46 0
-294 -47 0
-294 -48 0
-294 -49 0
-294 -50 0
-294 -51 0
-294 -52 0
-294 -53 0
-294 -54 0
-294 -55 0
-294 -56 0
-294 -57 0
-294 -173 0
-294 -88 0
-294 -63 0
-295 -232 0
-295 -95 0
-295 -154 0
-295 -155 0
-295 -156 0
-295 -157 0
-295 -120 0
-295 -158 0
-295 -159 0
-295 -145 0
-295 -160 0
-295 -161 0
-295 -162 0
-295 -163 0
-295 -164 0
-295 -165 0
-295 -195 0
-295 -88 0
-295 -110 0
-296 -232 0
-296 -112 0
-296 -154 0
-296 -155 0
-296 -156 0
-296 -157 0
-296 -120 0
-296 -158 0
-296 -159 0
-296 -145 0
-296 -160 0
-296 -161 0
-296 -162 0
-296 -163 0
-296 -164 0
-296 -165 0
-296 -195 0
-296 -88 0
-296 -113 0
-297 -218 0
-297 -95 0
-297 -249 0
-297 -68 0
-297 -250 0
-297 -251 0
-297 -142 0
-297 -121 0
-297 -252 0
-297 -253 0
-297 -254 0
-297 -53 0
-297 -255 0
-297 -256 0
16 23 -298 0
-16 -23 -298 0
16 -23 298 0
-16 23 298 0
-297 -298 0
-297 -258 0
-297 -229 0
-297 -259 0
-297 -110 0
-299 -218 0
-299 -112 0
-299 -249 0
-299 -68 0
-299 -250 0
-299 -251 0
-299 -142 0
-299 -121 0
-299 -252 0
-299 -253 0
-299 -254 0
-299 -53 0
-299 -255 0
-299 -256 0
-299 -298 0
-299 -258 0
-299 -229 0
-299 -259 0
-299 -113 0
-300 -239 0
-300 -66 0
-300 -262 0
5 23 -301 0
-5 -23 -301 0
5 -23 301 0
-5 23 301 0
-300 -301 0
-300 -98 0
-300 -264 0
-300 -120 0
-300 -265 0
-300 -266 0
-300 -267 0
-300 -268 0
-300 -269 0
-300 -270 0
-300 -271 0
-300 -272 0
-300 -273 0
-300 -58 0
-300 -259 0
-300 -82 0
-302 -239 0
-302 -84 0
-302 -262 0
-302 -301 0
-302 -98 0
-302 -264 0
-302 -120 0
-302 -265 0
-302 -266 0
-302 -267 0
-302 -268 0
-302 -269 0
-302 -270 0
-302 -271 0
-302 -272 0
-302 -273 0
-302 -58 0
-302 -259 0
-302 -85 0
-303 -235 0
-303 -95 0
-303 -249 0
-303 -68 0
-303 -250 0
-303 -251 0
-303 -142 0
-303 -121 0
-303 -252 0
-303 -253 0
-303 -254 0
-303 -53 0
-303 -255 0
-303 -256 0
-303 -298 0
-303 -258 0
-303 -236 0
-303 -259 0
-303 -110 0
-304 -235 0
-304 -112 0
-304 -249 0
-304 -68 0
-304 -250 0
-304 -251 0
-304 -142 0
-304 -121 0
-304 -252 0
-304 -253 0
-304 -254 0
-304 -53 0
-304 -255 0
-304 -256 0
-304 -298 0
-304 -258 0
-304 -236 0
-304 -259 0
-304 -113 0
-305 -244 0
-305 -66 0
-305 -262 0
-305 -301 0
-305 -98 0
-305 -264 0
-305 -120 0
-305 -265 0
-305 -266 0
-305 -267 0
-305 -268 0
-305 -269 0
-305 -270 0
-305 -271 0
-305 -272 0
-305 -273 0
-305 -173 0
-305 -259 0
-305 -82 0
-306 -244 0
-306 -84 0
-306 -262 0
-306 -301 0
-306 -98 0
-306 -264 0
-306 -120 0
-306 -265 0
-306 -266 0
-306 -267 0
-306 -268 0
-306 -269 0
-306 -270 0
-306 -271 0
-306 -272 0
-306 -273 0
-306 -173 0
-306 -259 0
-306 -85 0
-307 -218 0
-307 -65 0
-307 -116 0
5 26 -308 0
-5 -26 -308 0
5 -26 308 0
-5 26 308 0
-307 -308 0
6 27 -309 0
-6 -27 -309 0
6 -27 309 0
-6 27 309 0
-307 -309 0
7 28 -310 0
-7 -28 -310 0
7 -28 310 0
-7 28 310 0
-307 -310 0
8 29 -311 0
-8 -29 -311 0
8 -29 311 0
-8 29 311 0
-307 -311 0
9 30 -312 0
-9 -30 -312 0
9 -30 312 0
-9 30 312 0
-307 -312 0
-307 -159 0
11 32 -313 0
-11 -32 -313 0
11 -32 313 0
-11 32 313 0
-307 -313 0
12 33 -314 0
-12 -33 -314 0
12 -33 314 0
-12 33 314 0
-307 -314 0
-307 -210 0
14 35 -315 0
-14 -35 -315 0
14 -35 315 0
-14 35 315 0
-307 -315 0
15 36 -316 0
-15 -36 -316 0
15 -36 316 0
-15 36 316 0
-307 -316 0
-307 -272 0
17 38 -317 0
-17 -38 -317 0
17 -38 317 0
-17 38 317 0
-307 -317 0
-307 -229 0
-307 -81 0
20 24 -318 0
-20 -24 -318 0
20 -24 318 0
-20 24 318 0
-307 -318 0
-319 -218 0
-319 -91 0
-319 -116 0
-319 -308 0
-319 -309 0
-319 -310 0
-319 -311 0
-319 -312 0
-319 -159 0
-319 -313 0
-319 -314 0
-319 -210 0
-319 -315 0
-319 -316 0
-319 -272 0
-319 -317 0
-319 -229 0
-319 -92 0
-319 -318 0
-320 -202 0
-320 -42 0
-320 -154 0
-320 -155 0
-320 -156 0
-320 -157 0
-320 -120 0
-320 -158 0
-320 -159 0
-320 -145 0
-320 -160 0
-320 -161 0
-320 -162 0
-320 -163 0
-320 -164 0
-320 -165 0
-320 -166 0
-320 -59 0
-320 -110 0
-321 -202 0
-321 -87 0
-321 -154 0
-321 -155 0
-321 -156 0
-321 -157 0
-321 -120 0
-321 -158 0
-321 -159 0
-321 -145 0
-321 -160 0
-321 -161 0
-321 -162 0
-321 -163 0
-321 -164 0
-321 -165 0
-321 -166 0
-321 -88 0
-321 -110 0
-322 -235 0
-322 -65 0
-322 -116 0
-322 -308 0
-322 -309 0
-322 -310 0
-322 -311 0
-322 -312 0
-322 -159 0
-322 -313 0
-322 -314 0
-322 -210 0
-322 -315 0
-322 -316 0
-322 -272 0
-322 -317 0
-322 -236 0
-322 -81 0
-322 -318 0
-323 -235 0
-323 -91 0
-323 -116 0
-323 -308 0
-323 -309 0
-323 -310 0
-323 -311 0
-323 -312 0
-323 -159 0
-323 -313 0
-323 -314 0
-323 -210 0
-323 -315 0
-323 -316 0
-323 -272 0
-323 -317 0
-323 -236 0
-323 -92 0
-323 -318 0
-324 -232 0
-324 -42 0
-324 -154 0
-324 -155 0
-324 -156 0
-324 -157 0
-324 -120 0
-324 -158 0
-324 -159 0
-324 -145 0
-324 -160 0
-324 -161 0
-324 -162 0
-324 -163 0
-324 -164 0
-324 -165 0
-324 -195 0
-324 -59 0
-324 -110 0
-325 -232 0
-325 -87 0
-325 -154 0
-325 -155 0
-325 -156 0
-325 -157 0
-325 -120 0
-325 -158 0
-325 -159 0
-325 -145 0
-325 -160 0
-325 -161 0
-325 -162 0
-325 -163 0
-325 -164 0
-325 -165 0
-325 -195 0
-325 -88 0
-325 -110 0
-326 -202 0
-326 -115 0
4 34 -327 0
-4 -34 -327 0
4 -34 327 0
-4 34 327 0
-326 -327 0
5 32 -328 0
-5 -32 -328 0
5 -32 328 0
-5 32 328 0
-326 -328 0
6 30 -329 0
-6 -30 -329 0
6 -30 329 0
-6 30 329 0
-326 -329 0
-326 -310 0
8 26 -330 0
-8 -26 -330 0
8 -26 330 0
-8 26 330 0
-326 -330 0
9 24 -331 0
-9 -24 -331 0
9 -24 331 0
-9 24 331 0
-326 -331 0
10 39 -332 0
-10 -39 -332 0
10 -39 332 0
-10 39 332 0
-326 -332 0
11 37 -333 0
-11 -37 -333 0
11 -37 333 0
-11 37 333 0
-326 -333 0
-326 -268 0
-326 -53 0
14 31 -334 0
-14 -31 -334 0
14 -31 334 0
-14 31 334 0
-326 -334 0
-326 -226 0
16 27 -335 0
-16 -27 -335 0
16 -27 335 0
-16 27 335 0
-326 -335 0
-326 -79 0
-326 -166 0
-326 -129 0
20 36 -336 0
-20 -36 -336 0
20 -36 336 0
-20 36 336 0
-326 -336 0
-337 -202 0
-337 -134 0
-337 -327 0
-337 -328 0
-337 -329 0
-337 -310 0
-337 -330 0
-337 -331 0
-337 -332 0
-337 -333 0
-337 -268 0
-337 -53 0
-337 -334 0
-337 -226 0
-337 -335 0
-337 -79 0
-337 -166 0
-337 -135 0
-337 -336 0
-338 -239 0
-338 -65 0
4 27 -339 0
-4 -27 -339 0
4 -27 339 0
-4 27 339 0
-338 -339 0
5 29 -340 0
-5 -29 -340 0
5 -29 340 0
-5 29 340 0
-338 -340 0
6 31 -341 0
-6 -31 -341 0
6 -31 341 0
-6 31 341 0
-338 -341 0
7 33 -342 0
-7 -33 -342 0
7 -33 342 0
-7 33 342 0
-338 -342 0
8 35 -343 0
-8 -35 -343 0
8 -35 343 0
-8 35 343 0
-338 -343 0
9 37 -344 0
-9 -37 -344 0
9 -37 344 0
-9 37 344 0
-338 -344 0
-338 -332 0
11 24 -345 0
-11 -24 -345 0
11 -24 345 0
-11 24 345 0
-338 -345 0
-338 -209 0
-338 -161 0
14 30 -346 0
-14 -30 -346 0
14 -30 346 0
-14 30 346 0
-338 -346 0
-338 -256 0
16 34 -347 0
-16 -34 -347 0
16 -34 347 0
-16 34 347 0
-338 -347 0
-338 -150 0
-338 -58 0
-338 -81 0
20 25 -348 0
-20 -25 -348 0
20 -25 348 0
-20 25 348 0
-338 -348 0
-349 -239 0
-349 -91 0
-349 -339 0
-349 -340 0
-349 -341 0
-349 -342 0
-349 -343 0
-349 -344 0
-349 -332 0
-349 -345 0
-349 -209 0
-349 -161 0
-349 -346 0
-349 -256 0
-349 -347 0
-349 -150 0
-349 -58 0
-349 -92 0
-349 -348 0
-350 -232 0
-350 -115 0
-350 -327 0
-350 -328 0
-350 -329 0
-350 -310 0
-350 -330 0
-350 -331 0
-350 -332 0
-350 -333 0
-350 -268 0
-350 -53 0
-350 -334 0
-350 -226 0
-350 -335 0
-350 -79 0
-350 -195 0
-350 -129 0
-350 -336 0
-351 -232 0
-351 -134 0
-351 -327 0
-351 -328 0
-351 -329 0
-351 -310 0
-351 -330 0
-351 -331 0
-351 -332 0
-351 -333 0
-351 -268 0
-351 -53 0
-351 -334 0
-351 -226 0
-351 -335 0
-351 -79 0
-351 -195 0
-351 -135 0
-351 -336 0
-352 -244 0
-352 -65 0
-352 -339 0
-352 -340 0
-352 -341 0
-352 -342 0
-352 -343 0
-352 -344 0
-352 -332 0
-352 -345 0
-352 -209 0
-352 -161 0
-352 -346 0
-352 -256 0
-352 -347 0
-352 -150 0
-352 -173 0
-352 -81 0
-352 -348 0
-353 -244 0
-353 -91 0
-353 -339 0
-353 -340 0
-353 -341 0
-353 -342 0
-353 -343 0
-353 -344 0
-353 -332 0
-353 -345 0
-353 -209 0
-353 -161 0
-353 -346 0
-353 -256 0
-353 -347 0
-353 -150 0
-353 -173 0
-353 -92 0
-353 -348 0
-354 -239 0
-354 -42 0
-354 -44 0
-354 -45 0
-354 -46 0
-354 -47 0
-354 -48 0
-354 -49 0
-354 -50 0
-354 -51 0
-354 -52 0
-354 -53 0
-354 -54 0
-354 -55 0
-354 -56 0
-354 -57 0
-354 -58 0
-354 -59 0
-354 -60 0
-355 -239 0
-355 -87 0
-355 -44 0
-355 -45 0
-355 -46 0
-355 -47 0
-355 -48 0
-355 -49 0
-355 -50 0
-355 -51 0
-355 -52 0
-355 -53 0
-355 -54 0
-355 -55 0
-355 -56 0
-355 -57 0
-355 -58 0
-355 -88 0
-355 -60 0
-356 -218 0
-356 -115 0
-356 -96 0
5 35 -357 0
-5 -35 -357 0
5 -35 357 0
-5 35 357 0
-356 -357 0
6 34 -358 0
-6 -34 -358 0
6 -34 358 0
-6 34 358 0
-356 -358 0
-356 -342 0
8 32 -359 0
-8 -32 -359 0
8 -32 359 0
-8 32 359 0
-356 -359 0
9 31 -360 0
-9 -31 -360 0
9 -31 360 0
-9 31 360 0
-356 -360 0
-356 -50 0
11 29 -361 0
-11 -29 -361 0
11 -29 361 0
-11 29 361 0
-356 -361 0
12 28 -362 0
-12 -28 -362 0
12 -28 362 0
-12 28 362 0
-356 -362 0
-356 -269 0
14 26 -363 0
-14 -26 -363 0
14 -26 363 0
-14 26 363 0
-356 -363 0
15 25 -364 0
-15 -25 -364 0
15 -25 364 0
-15 25 364 0
-356 -364 0
-356 -213 0
17 40 -365 0
-17 -40 -365 0
17 -40 365 0
-17 40 365 0
-356 -365 0
-356 -229 0
-356 -129 0
20 37 -366 0
-20 -37 -366 0
20 -37 366 0
-20 37 366 0
-356 -366 0
-367 -218 0
-367 -134 0
-367 -96 0
-367 -357 0
-367 -358 0
-367 -342 0
-367 -359 0
-367 -360 0
-367 -50 0
-367 -361 0
-367 -362 0
-367 -269 0
-367 -363 0
-367 -364 0
-367 -213 0
-367 -365 0
-367 -229 0
-367 -135 0
-367 -366 0
-368 -244 0
-368 -42 0
-368 -44 0
-368 -45 0
-368 -46 0
-368 -47 0
-368 -48 0
-368 -49 0
-368 -50 0
-368 -51 0
-368 -52 0
-368 -53 0
-368 -54 0
-368 -55 0
-368 -56 0
-368 -57 0
-368 -173 0
-368 -59 0
-368 -60 0
-369 -244 0
-369 -87 0
-369 -44 0
-369 -45 0
-369 -46 0
-369 -47 0
-369 -48 0
-369 -49 0
-369 -50 0
-369 -51 0
-369 -52 0
-369 -53 0
-369 -54 0
-369 -55 0
-369 -56 0
-369 -57 0
-369 -173 0
-369 -88 0
-369 -60 0
-370 -235 0
-370 -115 0
-370 -96 0
-370 -357 0
-370 -358 0
-370 -342 0
-370 -359 0
-370 -360 0
-370 -50 0
-370 -361 0
-370 -362 0
-370 -269 0
-370 -363 0
-370 -364 0
-370 -213 0
-370 -365 0
-370 -236 0
-370 -129 0
-370 -366 0
-371 -235 0
-371 -134 0
-371 -96 0
-371 -357 0
-371 -358 0
-371 -342 0
-371 -359 0
-371 -360 0
-371 -50 0
-371 -361 0
-371 -362 0
-371 -269 0
-371 -363 0
-371 -364 0
-371 -213 0
-371 -365 0
-371 -236 0
-371 -135 0
-371 -366 0
-372 -218 0
-372 -65 0
-372 -116 0
-372 -308 0
-372 -309 0
-372 -310 0
-372 -311 0
-372 -312 0
-372 -159 0
-372 -313 0
-372 -314 0
-372 -210 0
-372 -315 0
-372 -316 0
-372 -272 0
17 21 -373 0
-17 -21 -373 0
17 -21 373 0
-17 21 373 0
-372 -373 0
-372 -229 0
-372 -81 0
-372 -318 0
-374 -218 0
-374 -91 0
-374 -116 0
-374 -308 0
-374 -309 0
-374 -310 0
-374 -311 0
-374 -312 0
-374 -159 0
-374 -313 0
-374 -314 0
-374 -210 0
-374 -315 0
-374 -316 0
-374 -272 0
-374 -373 0
-374 -229 0
-374 -92 0
-374 -318 0
-375 -202 0
-375 -42 0
-375 -154 0
-375 -155 0
-375 -156 0
-375 -157 0
-375 -120 0
-375 -158 0
-375 -159 0
-375 -145 0
-375 -160 0
-375 -161 0
-375 -162 0
-375 -163 0
-375 -164 0
-375 -165 0
-375 -166 0
-375 -59 0
-375 -113 0
-376 -202 0
-376 -87 0
-376 -154 0
-376 -155 0
-376 -156 0
-376 -157 0
-376 -120 0
-376 -158 0
-376 -159 0
-376 -145 0
-376 -160 0
-376 -161 0
-376 -162 0
-376 -163 0
-376 -164 0
-376 -165 0
-376 -166 0
-376 -88 0
-376 -113 0
-377 -235 0
-377 -65 0
-377 -116 0
-377 -308 0
-377 -309 0
-377 -310 0
-377 -311 0
-377 -312 0
-377 -159 0
-377 -313 0
-377 -314 0
-377 -210 0
-377 -315 0
-377 -316 0
-377 -272 0
-377 -373 0
-377 -236 0
-377 -81 0
-377 -318 0
-378 -235 0
-378 -91 0
-378 -116 0
-378 -308 0
-378 -309 0
-378 -310 0
-378 -311 0
-378 -312 0
-378 -159 0
-378 -313 0
-378 -314 0
-378 -210 0
-378 -315 0
-378 -316 0
-378 -272 0
-378 -373 0
-378 -236 0
-378 -92 0
-378 -318 0
-379 -232 0
-379 -42 0
-379 -154 0
-379 -155 0
-379 -156 0
-379 -157 0
-379 -120 0
-379 -158 0
-379 -159 0
-379 -145 0
-379 -160 0
-379 -161 0
-379 -162 0
-379 -163 0
-379 -164 0
-379 -165 0
-379 -195 0
-379 -59 0
-379 -113 0
-380 -232 0
-380 -87 0
-380 -154 0
-380 -155 0
-380 -156 0
-380 -157 0
-380 -120 0
-380 -158 0
-380 -159 0
-380 -145 0
-380 -160 0
-380 -161 0
-380 -162 0
-380 -163 0
-380 -164 0
-380 -165 0
-380 -195 0
-380 -88 0
-380 -113 0
-381 -202 0
-381 -115 0
-381 -327 0
-381 -328 0
-381 -329 0
-381 -310 0
-381 -330 0
-381 -331 0
10 22 -382 0
-10 -22 -382 0
10 -22 382 0
-10 22 382 0
-381 -382 0
-381 -333 0
-381 -268 0
-381 -53 0
-381 -334 0
-381 -226 0
-381 -335 0
-381 -79 0
-381 -166 0
-381 -129 0
-381 -336 0
-383 -202 0
-383 -134 0
-383 -327 0
-383 -328 0
-383 -329 0
-383 -310 0
-383 -330 0
-383 -331 0
-383 -382 0
-383 -333 0
-383 -268 0
-383 -53 0
-383 -334 0
-383 -226 0
-383 -335 0
-383 -79 0
-383 -166 0
-383 -135 0
-383 -336 0
-384 -239 0
-384 -65 0
-384 -339 0
-384 -340 0
-384 -341 0
-384 -342 0
-384 -343 0
-384 -344 0
-384 -382 0
-384 -345 0
-384 -209 0
-384 -161 0
-384 -346 0
-384 -256 0
-384 -347 0
-384 -150 0
-384 -58 0
-384 -81 0
-384 -348 0
-385 -239 0
-385 -91 0
-385 -339 0
-385 -340 0
-385 -341 0
-385 -342 0
-385 -343 0
-385 -344 0
-385 -382 0
-385 -345 0
-385 -209 0
-385 -161 0
-385 -346 0
-385 -256 0
-385 -347 0
-385 -150 0
-385 -58 0
-385 -92 0
-385 -348 0
-386 -232 0
-386 -115 0
-386 -327 0
-386 -328 0
-386 -329 0
-386 -310 0
-386 -330 0
-386 -331 0
-386 -382 0
-386 -333 0
-386 -268 0
-386 -53 0
-386 -334 0
-386 -226 0
-386 -335 0
-386 -79 0
-386 -195 0
-386 -129 0
-386 -336 0
-387 -232 0
-387 -134 0
-387 -327 0
-387 -328 0
-387 -329 0
-387 -310 0
-387 -330 0
-387 -331 0
-387 -382 0
-387 -333 0
-387 -268 0
-387 -53 0
-387 -334 0
-387 -226 0
-387 -335 0
-387 -79 0
-387 -195 0
-387 -135 0
-387 -336 0
-388 -244 0
-388 -65 0
-388 -339 0
-388 -340 0
-388 -341 0
-388 -342 0
-388 -343 0
-388 -344 0
-388 -382 0
-388 -345 0
-388 -209 0
-388 -161 0
-388 -346 0
-388 -256 0
-388 -347 0
-388 -150 0
-388 -173 0
-388 -81 0
-388 -348 0
-389 -244 0
-389 -91 0
-389 -339 0
-389 -340 0
-389 -341 0
-389 -342 0
-389 -343 0
-389 -344 0
-389 -382 0
-389 -345 0
-389 -209 0
-389 -161 0
-389 -346 0
-389 -256 0
-389 -347 0
-389 -150 0
-389 -173 0
-389 -92 0
-389 -348 0
-390 -239 0
-390 -42 0
-390 -44 0
-390 -45 0
-390 -46 0
-390 -47 0
-390 -48 0
-390 -49 0
-390 -50 0
-390 -51 0
-390 -52 0
-390 -53 0
-390 -54 0
-390 -55 0
-390 -56 0
-390 -57 0
-390 -58 0
-390 -59 0
-390 -63 0
-391 -239 0
-391 -87 0
-391 -44 0
-391 -45 0
-391 -46 0
-391 -47 0
-391 -48 0
-391 -49 0
-391 -50 0
-391 -51 0
-391 -52 0
-391 -53 0
-391 -54 0
-391 -55 0
-391 -56 0
-391 -57 0
-391 -58 0
-391 -88 0
-391 -63 0
-392 -218 0
-392 -115 0
-392 -96 0
-392 -357 0
-392 -358 0
-392 -342 0
-392 -359 0
-392 -360 0
-392 -50 0
-392 -361 0
-392 -362 0
-392 -269 0
-392 -363 0
-392 -364 0
-392 -213 0
17 23 -393 0
-17 -23 -393 0
17 -23 393 0
-17 23 393 0
-392 -393 0
-392 -229 0
-392 -129 0
-392 -366 0
-394 -218 0
-394 -134 0
-394 -96 0
-394 -357 0
-394 -358 0
-394 -342 0
-394 -359 0
-394 -360 0
-394 -50 0
-394 -361 0
-394 -362 0
-394 -269 0
-394 -363 0
-394 -364 0
-394 -213 0
-394 -393 0
-394 -229 0
-394 -135 0
-394 -366 0
-395 -244 0
-395 -42 0
-395 -44 0
-395 -45 0
-395 -46 0
-395 -47 0
-395 -48 0
-395 -49 0
-395 -50 0
-395 -51 0
-395 -52 0
-395 -53 0
-395 -54 0
-395 -55 0
-395 -56 0
-395 -57 0
-395 -173 0
-395 -59 0
-395 -63 0
-396 -244 0
-396 -87 0
-396 -44 0
-396 -45 0
-396 -46 0
-396 -47 0
-396 -48 0
-396 -49 0
-396 -50 0
-396 -51 0
-396 -52 0
-396 -53 0
-396 -54 0
-396 -55 0
-396 -56 0
-396 -57 0
-396 -173 0
-396 -88 0
-396 -63 0
-397 -235 0
-397 -115 0
-397 -96 0
-397 -357 0
-397 -358 0
-397 -342 0
-397 -359 0
-397 -360 0
-397 -50 0
-397 -361 0
-397 -362 0
-397 -269 0
-397 -363 0
-397 -364 0
-397 -213 0
-397 -393 0
-397 -236 0
-397 -129 0
-397 -366 0
-398 -235 0
-398 -134 0
-398 -96 0
-398 -357 0
-398 -358 0
-398 -342 0
-398 -359 0
-398 -360 0
-398 -50 0
-398 -361 0
-398 -362 0
-398 -269 0
-398 -363 0
-398 -364 0
-398 -213 0
-398 -393 0
-398 -236 0
-398 -135 0
-398 -366 0
-399 -244 0
-399 -42 0
-399 -43 0
-399 -44 0
-399 -45 0
-399 -46 0
-399 -47 0
-399 -48 0
-399 -49 0
-399 -50 0
-399 -51 0
-399 -52 0
-399 -53 0
-399 -54 0
-399 -55 0
-399 -56 0
-399 -57 0
-399 -59 0
-399 -60 0
-400 -244 0
-400 -42 0
-400 -62 0
-400 -44 0
-400 -45 0
-400 -46 0
-400 -47 0
-400 -48 0
-400 -49 0
-400 -50 0
-400 -51 0
-400 -52 0
-400 -53 0
-400 -54 0
-400 -55 0
-400 -56 0
-400 -57 0
-400 -59 0
-400 -63 0
-401 -244 0
-401 -87 0
-401 -43 0
-401 -44 0
-401 -45 0
-401 -46 0
-401 -47 0
-401 -48 0
-401 -49 0
-401 -50 0
-401 -51 0
-401 -52 0
-401 -53 0
-401 -54 0
-401 -55 0
-401 -56 0
-401 -57 0
-401 -88 0
-401 -60 0
-402 -244 0
-402 -87 0
-402 -62 0
-402 -44 0
-402 -45 0
-402 -46 0
-402 -47 0
-402 -48 0
-402 -49 0
-402 -50 0
-402 -51 0
-402 -52 0
-402 -53 0
-402 -54 0
-402 -55 0
-402 -56 0
-402 -57 0
-402 -88 0
-402 -63 0
1 24 -404 0
-1 -24 -404 0
1 -24 404 0
-1 24 404 0
-403 -404 0
-403 -65 0
-403 -66 0
-403 -67 0
-403 -68 0
-403 -69 0
-403 -70 0
-403 -71 0
-403 -72 0
-403 -73 0
-403 -51 0
-403 -74 0
-403 -75 0
-403 -76 0
-403 -77 0
-403 -78 0
-403 -79 0
-403 -81 0
-403 -82 0
-405 -404 0
-405 -65 0
-405 -84 0
-405 -67 0
-405 -68 0
-405 -69 0
-405 -70 0
-405 -71 0
-405 -72 0
-405 -73 0
-405 -51 0
-405 -74 0
-405 -75 0
-405 -76 0
-405 -77 0
-405 -78 0
-405 -79 0
-405 -81 0
-405 -85 0
-406 -404 0
-406 -91 0
-406 -66 0
-406 -67 0
-406 -68 0
-406 -69 0
-406 -70 0
-406 -71 0
-406 -72 0
-406 -73 0
-406 -51 0
-406 -74 0
-406 -75 0
-406 -76 0
-406 -77 0
-406 -78 0
-406 -79 0
-406 -92 0
-406 -82 0
-407 -404 0
-407 -91 0
-407 -84 0
-407 -67 0
-407 -68 0
-407 -69 0
-407 -70 0
-407 -71 0
-407 -72 0
-407 -73 0
-407 -51 0
-407 -74 0
-407 -75 0
-407 -76 0
-407 -77 0
-407 -78 0
-407 -79 0
-407 -92 0
-407 -85 0
1 25 -409 0
-1 -25 -409 0
1 -25 409 0
-1 25 409 0
-408 -409 0
-408 -65 0
-408 -95 0
-408 -96 0
-408 -97 0
-408 -98 0
-408 -99 0
-408 -48 0
-408 -100 0
-408 -101 0
-408 -102 0
-408 -103 0
-408 -104 0
-408 -105 0
-408 -106 0
-408 -107 0
-408 -108 0
-408 -81 0
-408 -110 0
-410 -409 0
-410 -65 0
-410 -112 0
-410 -96 0
-410 -97 0
-410 -98 0
-410 -99 0
-410 -48 0
-410 -100 0
-410 -101 0
-410 -102 0
-410 -103 0
-410 -104 0
-410 -105 0
-410 -106 0
-410 -107 0
-410 -108 0
-410 -81 0
-410 -113 0
-411 -409 0
-411 -91 0
-411 -95 0
-411 -96 0
-411 -97 0
-411 -98 0
-411 -99 0
-411 -48 0
-411 -100 0
-411 -101 0
-411 -102 0
-411 -103 0
-411 -104 0
-411 -105 0
-411 -106 0
-411 -107 0
-411 -108 0
-411 -92 0
-411 -110 0
-412 -409 0
-412 -91 0
-412 -112 0
-412 -96 0
-412 -97 0
-412 -98 0
-412 -99 0
-412 -48 0
-412 -100 0
-412 -101 0
-412 -102 0
-412 -103 0
-412 -104 0
-412 -105 0
-412 -106 0
-412 -107 0
-412 -108 0
-412 -92 0
-412 -113 0
1 36 -414 0
-1 -36 -414 0
1 -36 414 0
-1 36 414 0
-413 -414 0
-413 -115 0
-413 -43 0
-413 -116 0
-413 -117 0
-413 -118 0
-413 -119 0
-413 -120 0
-413 -121 0
-413 -122 0
-413 -102 0
-413 -123 0
-413 -124 0
-413 -76 0
-413 -125 0
-413 -126 0
-413 -127 0
-413 -129 0
-413 -60 0
-415 -414 0
-415 -115 0
-415 -62 0
-415 -116 0
-415 -117 0
-415 -118 0
-415 -119 0
-415 -120 0
-415 -121 0
-415 -122 0
-415 -102 0
-415 -123 0
-415 -124 0
-415 -76 0
-415 -125 0
-415 -126 0
-415 -127 0
-415 -129 0
-415 -63 0
-416 -414 0
-416 -134 0
-416 -43 0
-416 -116 0
-416 -117 0
-416 -118 0
-416 -119 0
-416 -120 0
-416 -121 0
-416 -122 0
-416 -102 0
-416 -123 0
-416 -124 0
-416 -76 0
-416 -125 0
-416 -126 0
-416 -127 0
-416 -135 0
-416 -60 0
-417 -414 0
-417 -134 0
-417 -62 0
-417 -116 0
-417 -117 0
-417 -118 0
-417 -119 0
-417 -120 0
-417 -121 0
-417 -122 0
-417 -102 0
-417 -123 0
-417 -124 0
-417 -76 0
-417 -125 0
-417 -126 0
-417 -127 0
-417 -135 0
-417 -63 0
1 37 -419 0
-1 -37 -419 0
1 -37 419 0
-1 37 419 0
-418 -419 0
-418 -115 0
-418 -66 0
-418 -138 0
-418 -139 0
-418 -140 0
-418 -141 0
-418 -142 0
-418 -143 0
-418 -144 0
-418 -145 0
-418 -146 0
-418 -147 0
-418 -105 0
-418 -148 0
-418 -149 0
-418 -150 0
-418 -129 0
-418 -82 0
-420 -419 0
-420 -115 0
-420 -84 0
-420 -138 0
-420 -139 0
-420 -140 0
-420 -141 0
-420 -142 0
-420 -143 0
-420 -144 0
-420 -145 0
-420 -146 0
-420 -147 0
-420 -105 0
-420 -148 0
-420 -149 0
-420 -150 0
-420 -129 0
-420 -85 0
-421 -419 0
-421 -134 0
-421 -66 0
-421 -138 0
-421 -139 0
-421 -140 0
-421 -141 0
-421 -142 0
-421 -143 0
-421 -144 0
-421 -145 0
-421 -146 0
-421 -147 0
-421 -105 0
-421 -148 0
-421 -149 0
-421 -150 0
-421 -135 0
-421 -82 0
-422 -419 0
-422 -134 0
-422 -84 0
-422 -138 0
-422 -139 0
-422 -140 0
-422 -141 0
-422 -142 0
-422 -143 0
-422 -144 0
-422 -145 0
-422 -146 0
-422 -147 0
-422 -105 0
-422 -148 0
-422 -149 0
-422 -150 0
-422 -135 0
-422 -85 0
-423 -232 0
-423 -42 0
-423 -95 0
-423 -154 0
-423 -155 0
-423 -156 0
-423 -157 0
-423 -120 0
-423 -158 0
-423 -159 0
-423 -145 0
-423 -160 0
-423 -161 0
-423 -162 0
-423 -163 0
-423 -164 0
-423 -165 0
-423 -59 0
-423 -110 0
-424 -232 0
-424 -42 0
-424 -112 0
-424 -154 0
-424 -155 0
-424 -156 0
-424 -157 0
-424 -120 0
-424 -158 0
-424 -159 0
-424 -145 0
-424 -160 0
-424 -161 0
-424 -162 0
-424 -163 0
-424 -164 0
-424 -165 0
-424 -59 0
-424 -113 0
-425 -232 0
-425 -87 0
-425 -95 0
-425 -154 0
-425 -155 0
-425 -156 0
-425 -157 0
-425 -120 0
-425 -158 0
-425 -159 0
-425 -145 0
-425 -160 0
-425 -161 0
-425 -162 0
-425 -163 0
-425 -164 0
-425 -165 0
-425 -88 0
-425 -110 0
-426 -232 0
-426 -87 0
-426 -112 0
-426 -154 0
-426 -155 0
-426 -156 0
-426 -157 0
-426 -120 0
-426 -158 0
-426 -159 0
-426 -145 0
-426 -160 0
-426 -161 0
-426 -162 0
-426 -163 0
-426 -164 0
-426 -165 0
-426 -88 0
-426 -113 0
-427 -239 0
-427 -42 0
-427 -43 0
-427 -44 0
-427 -45 0
-427 -46 0
-427 -47 0
-427 -48 0
-427 -49 0
-427 -50 0
-427 -51 0
-427 -52 0
-427 -53 0
-427 -54 0
-427 -55 0
-427 -56 0
-427 -57 0
-427 -59 0
-427 -60 0
-428 -239 0
-428 -42 0
-428 -62 0
-428 -44 0
-428 -45 0
-428 -46 0
-428 -47 0
-428 -48 0
-428 -49 0
-428 -50 0
-428 -51 0
-428 -52 0
-428 -53 0
-428 -54 0
-428 -55 0
-428 -56 0
-428 -57 0
-428 -59 0
-428 -63 0
-429 -239 0
-429 -87 0
-429 -43 0
-429 -44 0
-429 -45 0
-429 -46 0
-429 -47 0
-429 -48 0
-429 -49 0
-429 -50 0
-429 -51 0
-429 -52 0
-429 -53 0
-429 -54 0
-429 -55 0
-429 -56 0
-429 -57 0
-429 -88 0
-429 -60 0
-430 -239 0
-430 -87 0
-430 -62 0
-430 -44 0
-430 -45 0
-430 -46 0
-430 -47 0
-430 -48 0
-430 -49 0
-430 -50 0
-430 -51 0
-430 -52 0
-430 -53 0
-430 -54 0
-430 -55 0
-430 -56 0
-430 -57 0
-430 -88 0
-430 -63 0
-431 -404 0
-431 -65 0
-431 -66 0
-431 -176 0
-431 -68 0
-431 -69 0
-431 -70 0
-431 -71 0
-431 -72 0
-431 -73 0
-431 -51 0
-431 -74 0
-431 -75 0
-431 -76 0
-431 -77 0
-431 -78 0
-431 -79 0
-431 -81 0
-431 -82 0
-432 -404 0
-432 -65 0
-432 -84 0
-432 -176 0
-432 -68 0
-432 -69 0
-432 -70 0
-432 -71 0
-432 -72 0
-432 -73 0
-432 -51 0
-432 -74 0
-432 -75 0
-432 -76 0
-432 -77 0
-432 -78 0
-432 -79 0
-432 -81 0
-432 -85 0
-433 -404 0
-433 -91 0
-433 -66 0
-433 -176 0
-433 -68 0
-433 -69 0
-433 -70 0
-433 -71 0
-433 -72 0
-433 -73 0
-433 -51 0
-433 -74 0
-433 -75 0
-433 -76 0
-433 -77 0
-433 -78 0
-433 -79 0
-433 -92 0
-433 -82 0
-434 -404 0
-434 -91 0
-434 -84 0
-434 -176 0
-434 -68 0
-434 -69 0
-434 -70 0
-434 -71 0
-434 -72 0
-434 -73 0
-434 -51 0
-434 -74 0
-434 -75 0
-434 -76 0
-434 -77 0
-434 -78 0
-434 -79 0
-434 -92 0
-434 -85 0
-435 -409 0
-435 -65 0
-435 -95 0
-435 -96 0
-435 -97 0
-435 -98 0
-435 -99 0
-435 -48 0
-435 -100 0
-435 -101 0
-435 -183 0
-435 -103 0
-435 -104 0
-435 -105 0
-435 -106 0
-435 -107 0
-435 -108 0
-435 -81 0
-435 -110 0
-436 -409 0
-436 -65 0
-436 -112 0
-436 -96 0
-436 -97 0
-436 -98 0
-436 -99 0
-436 -48 0
-436 -100 0
-436 -101 0
-436 -183 0
-436 -103 0
-436 -104 0
-436 -105 0
-436 -106 0
-436 -107 0
-436 -108 0
-436 -81 0
-436 -113 0
-437 -409 0
-437 -91 0
-437 -95 0
-437 -96 0
-437 -97 0
-437 -98 0
-437 -99 0
-437 -48 0
-437 -100 0
-437 -101 0
-437 -183 0
-437 -103 0
-437 -104 0
-437 -105 0
-437 -106 0
-437 -107 0
-437 -108 0
-437 -92 0
-437 -110 0
-438 -409 0
-438 -91 0
-438 -112 0
-438 -96 0
-438 -97 0
-438 -98 0
-438 -99 0
-438 -48 0
-438 -100 0
-438 -101 0
-438 -183 0
-438 -103 0
-438 -104 0
-438 -105 0
-438 -106 0
-438 -107 0
-438 -108 0
-438 -92 0
-438 -113 0
-439 -414 0
-439 -115 0
-439 -43 0
-439 -116 0
-439 -117 0
-439 -118 0
-439 -119 0
-439 -120 0
-439 -121 0
-439 -122 0
-439 -183 0
-439 -123 0
-439 -124 0
-439 -76 0
-439 -125 0
-439 -126 0
-439 -127 0
-439 -129 0
-439 -60 0
-440 -414 0
-440 -115 0
-440 -62 0
-440 -116 0
-440 -117 0
-440 -118 0
-440 -119 0
-440 -120 0
-440 -121 0
-440 -122 0
-440 -183 0
-440 -123 0
-440 -124 0
-440 -76 0
-440 -125 0
-440 -126 0
-440 -127 0
-440 -129 0
-440 -63 0
-441 -414 0
-441 -134 0
-441 -43 0
-441 -116 0
-441 -117 0
-441 -118 0
-441 -119 0
-441 -120 0
-441 -121 0
-441 -122 0
-441 -183 0
-441 -123 0
-441 -124 0
-441 -76 0
-441 -125 0
-441 -126 0
-441 -127 0
-441 -135 0
-441 -60 0
-442 -414 0
-442 -134 0
-442 -62 0
-442 -116 0
-442 -117 0
-442 -118 0
-442 -119 0
-442 -120 0
-442 -121 0
-442 -122 0
-442 -183 0
-442 -123 0
-442 -124 0
-442 -76 0
-442 -125 0
-442 -126 0
-442 -127 0
-442 -135 0
-442 -63 0
-443 -419 0
-443 -115 0
-443 -66 0
-443 -192 0
-443 -139 0
-443 -140 0
-443 -141 0
-443 -142 0
-443 -143 0
-443 -144 0
-443 -145 0
-443 -146 0
-443 -147 0
-443 -105 0
-443 -148 0
-443 -149 0
-443 -150 0
-443 -129 0
-443 -82 0
-444 -419 0
-444 -115 0
-444 -84 0
-444 -192 0
-444 -139 0
-444 -140 0
-444 -141 0
-444 -142 0
-444 -143 0
-444 -144 0
-444 -145 0
-444 -146 0
-444 -147 0
-444 -105 0
-444 -148 0
-444 -149 0
-444 -150 0
-444 -129 0
-444 -85 0
-445 -419 0
-445 -134 0
-445 -66 0
-445 -192 0
-445 -139 0
-445 -140 0
-445 -141 0
-445 -142 0
-445 -143 0
-445 -144 0
-445 -145 0
-445 -146 0
-445 -147 0
-445 -105 0
-445 -148 0
-445 -149 0
-445 -150 0
-445 -135 0
-445 -82 0
-446 -419 0
-446 -134 0
-446 -84 0
-446 -192 0
-446 -139 0
-446 -140 0
-446 -141 0
-446 -142 0
-446 -143 0
-446 -144 0
-446 -145 0
-446 -146 0
-446 -147 0
-446 -105 0
-446 -148 0
-446 -149 0
-446 -150 0
-446 -135 0
-446 -85 0
-447 -202 0
-447 -42 0
-447 -95 0
-447 -154 0
-447 -155 0
-447 -156 0
-447 -157 0
-447 -120 0
-447 -158 0
-447 -159 0
-447 -145 0
-447 -160 0
-447 -161 0
-447 -162 0
-447 -163 0
-447 -164 0
-447 -165 0
-447 -59 0
-447 -110 0
-448 -202 0
-448 -42 0
-448 -112 0
-448 -154 0
-448 -155 0
-448 -156 0
-448 -157 0
-448 -120 0
-448 -158 0
-448 -159 0
-448 -145 0
-448 -160 0
-448 -161 0
-448 -162 0
-448 -163 0
-448 -164 0
-448 -165 0
-448 -59 0
-448 -113 0
-449 -202 0
-449 -87 0
-449 -95 0
-449 -154 0
-449 -155 0
-449 -156 0
-449 -157 0
-449 -120 0
-449 -158 0
-449 -159 0
-449 -145 0
-449 -160 0
-449 -161 0
-449 -162 0
-449 -163 0
-449 -164 0
-449 -165 0
-449 -88 0
-449 -110 0
-450 -202 0
-450 -87 0
-450 -112 0
-450 -154 0
-450 -155 0
-450 -156 0
-450 -157 0
-450 -120 0
-450 -158 0
-450 -159 0
-450 -145 0
-450 -160 0
-450 -161 0
-450 -162 0
-450 -163 0
-450 -164 0
-450 -165 0
-450 -88 0
-450 -113 0
-451 -202 0
2 31 -452 0
-2 -31 -452 0
2 -31 452 0
-2 31 452 0
-451 -452 0
-451 -66 0
-451 -203 0
-451 -204 0
-451 -118 0
-451 -205 0
-451 -48 0
-451 -206 0
-451 -207 0
-451 -208 0
-451 -209 0
-451 -210 0
-451 -211 0
-451 -212 0
-451 -213 0
-451 -214 0
-451 -166 0
-451 -82 0
-453 -202 0
-453 -452 0
-453 -84 0
-453 -203 0
-453 -204 0
-453 -118 0
-453 -205 0
-453 -48 0
-453 -206 0
-453 -207 0
-453 -208 0
-453 -209 0
-453 -210 0
-453 -211 0
-453 -212 0
-453 -213 0
-453 -214 0
-453 -166 0
-453 -85 0
-454 -218 0
-454 -452 0
-454 -43 0
-454 -219 0
-454 -139 0
-454 -220 0
-454 -221 0
-454 -71 0
-454 -100 0
-454 -222 0
-454 -223 0
-454 -224 0
-454 -161 0
-454 -225 0
-454 -226 0
-454 -227 0
-454 -228 0
-454 -229 0
-454 -60 0
-455 -218 0
-455 -452 0
-455 -62 0
-455 -219 0
-455 -139 0
-455 -220 0
-455 -221 0
-455 -71 0
-455 -100 0
-455 -222 0
-455 -223 0
-455 -224 0
-455 -161 0
-455 -225 0
-455 -226 0
-455 -227 0
-455 -228 0
-455 -229 0
-455 -63 0
-456 -232 0
-456 -452 0
-456 -66 0
-456 -203 0
-456 -204 0
-456 -118 0
-456 -205 0
-456 -48 0
-456 -206 0
-456 -207 0
-456 -208 0
-456 -209 0
-456 -210 0
-456 -211 0
-456 -212 0
-456 -213 0
-456 -214 0
-456 -195 0
-456 -82 0
-457 -232 0
-457 -452 0
-457 -84 0
-457 -203 0
-457 -204 0
-457 -118 0
-457 -205 0
-457 -48 0
-457 -206 0
-457 -207 0
-457 -208 0
-457 -209 0
-457 -210 0
-457 -211 0
-457 -212 0
-457 -213 0
-457 -214 0
-457 -195 0
-457 -85 0
-458 -235 0
-458 -452 0
-458 -43 0
-458 -219 0
-458 -139 0
-458 -220 0
-458 -221 0
-458 -71 0
-458 -100 0
-458 -222 0
-458 -223 0
-458 -224 0
-458 -161 0
-458 -225 0
-458 -226 0
-458 -227 0
-458 -228 0
-458 -236 0
-458 -60 0
-459 -235 0
-459 -452 0
-459 -62 0
-459 -219 0
-459 -139 0
-459 -220 0
-459 -221 0
-459 -71 0
-459 -100 0
-459 -222 0
-459 -223 0
-459 -224 0
-459 -161 0
-459 -225 0
-459 -226 0
-459 -227 0
-459 -228 0
-459 -236 0
-459 -63 0
-460 -239 0
-460 -87 0
-460 -43 0
-460 -44 0
-460 -45 0
-460 -46 0
-460 -47 0
-460 -48 0
-460 -49 0
-460 -50 0
-460 -51 0
-460 -52 0
-460 -53 0
-460 -54 0
-460 -55 0
-460 -56 0
-460 -57 0
-460 -58 0
-460 -60 0
-461 -239 0
-461 -87 0
-461 -62 0
-461 -44 0
-461 -45 0
-461 -46 0
-461 -47 0
-461 -48 0
-461 -49 0
-461 -50 0
-461 -51 0
-461 -52 0
-461 -53 0
-461 -54 0
-461 -55 0
-461 -56 0
-461 -57 0
-461 -58 0
-461 -63 0
-462 -202 0
-462 -87 0
-462 -95 0
-462 -154 0
-462 -155 0
-462 -156 0
-462 -157 0
-462 -120 0
-462 -158 0
-462 -159 0
-462 -145 0
-462 -160 0
-462 -161 0
-462 -162 0
-462 -163 0
-462 -164 0
-462 -165 0
-462 -166 0
-462 -110 0
-463 -202 0
-463 -87 0
-463 -112 0
-463 -154 0
-463 -155 0
-463 -156 0
-463 -157 0
-463 -120 0
-463 -158 0
-463 -159 0
-463 -145 0
-463 -160 0
-463 -161 0
-463 -162 0
-463 -163 0
-463 -164 0
-463 -165 0
-463 -166 0
-463 -113 0
-464 -244 0
-464 -87 0
-464 -43 0
-464 -44 0
-464 -45 0
-464 -46 0
-464 -47 0
-464 -48 0
-464 -49 0
-464 -50 0
-464 -51 0
-464 -52 0
-464 -53 0
-464 -54 0
-464 -55 0
-464 -56 0
-464 -57 0
-464 -173 0
-464 -60 0
-465 -244 0
-465 -87 0
-465 -62 0
-465 -44 0
-465 -45 0
-465 -46 0
-465 -47 0
-465 -48 0
-465 -49 0
-465 -50 0
-465 -51 0
-465 -52 0
-465 -53 0
-465 -54 0
-465 -55 0
-465 -56 0
-465 -57 0
-465 -173 0
-465 -63 0
-466 -232 0
-466 -87 0
-466 -95 0
-466 -154 0
-466 -155 0
-466 -156 0
-466 -157 0
-466 -120 0
-466 -158 0
-466 -159 0
-466 -145 0
-466 -160 0
-466 -161 0
-466 -162 0
-466 -163 0
-466 -164 0
-466 -165 0
-466 -195 0
-466 -110 0
-467 -232 0
-467 -87 0
-467 -112 0
-467 -154 0
-467 -155 0
-467 -156 0
-467 -157 0
-467 -120 0
-467 -158 0
-467 -159 0
-467 -145 0
-467 -160 0
-467 -161 0
-467 -162 0
-467 -163 0
-467 -164 0
-467 -165 0
-467 -195 0
-467 -113 0
-468 -218 0
2 30 -469 0
-2 -30 -469 0
2 -30 469 0
-2 30 469 0
-468 -469 0
-468 -95 0
-468 -249 0
-468 -68 0
-468 -250 0
-468 -251 0
-468 -142 0
-468 -121 0
-468 -252 0
-468 -253 0
-468 -254 0
-468 -53 0
-468 -255 0
-468 -256 0
-468 -257 0
-468 -258 0
-468 -229 0
-468 -110 0
-470 -218 0
-470 -469 0
-470 -112 0
-470 -249 0
-470 -68 0
-470 -250 0
-470 -251 0
-470 -142 0
-470 -121 0
-470 -252 0
-470 -253 0
-470 -254 0
-470 -53 0
-470 -255 0
-470 -256 0
-470 -257 0
-470 -258 0
-470 -229 0
-470 -113 0
-471 -239 0
-471 -469 0
-471 -66 0
-471 -262 0
-471 -263 0
-471 -98 0
-471 -264 0
-471 -120 0
-471 -265 0
-471 -266 0
-471 -267 0
-471 -268 0
-471 -269 0
-471 -270 0
-471 -271 0
-471 -272 0
-471 -273 0
-471 -58 0
-471 -82 0
-472 -239 0
-472 -469 0
-472 -84 0
-472 -262 0
-472 -263 0
-472 -98 0
-472 -264 0
-472 -120 0
-472 -265 0
-472 -266 0
-472 -267 0
-472 -268 0
-472 -269 0
-472 -270 0
-472 -271 0
-472 -272 0
-472 -273 0
-472 -58 0
-472 -85 0
-473 -235 0
-473 -469 0
-473 -95 0
-473 -249 0
-473 -68 0
-473 -250 0
-473 -251 0
-473 -142 0
-473 -121 0
-473 -252 0
-473 -253 0
-473 -254 0
-473 -53 0
-473 -255 0
-473 -256 0
-473 -257 0
-473 -258 0
-473 -236 0
-473 -110 0
-474 -235 0
-474 -469 0
-474 -112 0
-474 -249 0
-474 -68 0
-474 -250 0
-474 -251 0
-474 -142 0
-474 -121 0
-474 -252 0
-474 -253 0
-474 -254 0
-474 -53 0
-474 -255 0
-474 -256 0
-474 -257 0
-474 -258 0
-474 -236 0
-474 -113 0
-475 -244 0
-475 -469 0
-475 -66 0
-475 -262 0
-475 -263 0
-475 -98 0
-475 -264 0
-475 -120 0
-475 -265 0
-475 -266 0
-475 -267 0
-475 -268 0
-475 -269 0
-475 -270 0
-475 -271 0
-475 -272 0
-475 -273 0
-475 -173 0
-475 -82 0
-476 -244 0
-476 -469 0
-476 -84 0
-476 -262 0
-476 -263 0
-476 -98 0
-476 -264 0
-476 -120 0
-476 -265 0
-476 -266 0
-476 -267 0
-476 -268 0
-476 -269 0
-476 -270 0
-476 -271 0
-476 -272 0
-476 -273 0
-476 -173 0
-476 -85 0
-477 -202 0
-477 -452 0
-477 -66 0
-477 -203 0
-477 -280 0
-477 -118 0
-477 -205 0
-477 -48 0
-477 -206 0
-477 -207 0
-477 -208 0
-477 -209 0
-477 -210 0
-477 -211 0
-477 -212 0
-477 -213 0
-477 -214 0
-477 -166 0
-477 -82 0
-478 -202 0
-478 -452 0
-478 -84 0
-478 -203 0
-478 -280 0
-478 -118 0
-478 -205 0
-478 -48 0
-478 -206 0
-478 -207 0
-478 -208 0
-478 -209 0
-478 -210 0
-478 -211 0
-478 -212 0
-478 -213 0
-478 -214 0
-478 -166 0
-478 -85 0
-479 -218 0
-479 -452 0
-479 -43 0
-479 -219 0
-479 -139 0
-479 -220 0
-479 -221 0
-479 -71 0
-479 -100 0
-479 -222 0
-479 -223 0
-479 -224 0
-479 -161 0
-479 -225 0
-479 -226 0
-479 -283 0
-479 -228 0
-479 -229 0
-479 -60 0
-480 -218 0
-480 -452 0
-480 -62 0
-480 -219 0
-480 -139 0
-480 -220 0
-480 -221 0
-480 -71 0
-480 -100 0
-480 -222 0
-480 -223 0
-480 -224 0
-480 -161 0
-480 -225 0
-480 -226 0
-480 -283 0
-480 -228 0
-480 -229 0
-480 -63 0
-481 -232 0
-481 -452 0
-481 -66 0
-481 -203 0
-481 -280 0
-481 -118 0
-481 -205 0
-481 -48 0
-481 -206 0
-481 -207 0
-481 -208 0
-481 -209 0
-481 -210 0
-481 -211 0
-481 -212 0
-481 -213 0
-481 -214 0
-481 -195 0
-481 -82 0
-482 -232 0
-482 -452 0
-482 -84 0
-482 -203 0
-482 -280 0
-482 -118 0
-482 -205 0
-482 -48 0
-482 -206 0
-482 -207 0
-482 -208 0
-482 -209 0
-482 -210 0
-482 -211 0
-482 -212 0
-482 -213 0
-482 -214 0
-482 -195 0
-482 -85 0
-483 -235 0
-483 -452 0
-483 -43 0
-483 -219 0
-483 -139 0
-483 -220 0
-483 -221 0
-483 -71 0
-483 -100 0
-483 -222 0
-483 -223 0
-483 -224 0
-483 -161 0
-483 -225 0
-483 -226 0
-483 -283 0
-483 -228 0
-483 -236 0
-483 -60 0
-484 -235 0
-484 -452 0
-484 -62 0
-484 -219 0
-484 -139 0
-484 -220 0
-484 -221 0
-484 -71 0
-484 -100 0
-484 -222 0
-484 -223 0
-484 -224 0
-484 -161 0
-484 -225 0
-484 -226 0
-484 -283 0
-484 -228 0
-484 -236 0
-484 -63 0
-485 -239 0
-485 -42 0
-485 -43 0
-485 -44 0
-485 -45 0
-485 -46 0
-485 -47 0
-485 -48 0
-485 -49 0
-485 -50 0
-485 -51 0
-485 -52 0
-485 -53 0
-485 -54 0
-485 -55 0
-485 -56 0
-485 -57 0
-485 -58 0
-485 -60 0
-486 -239 0
-486 -42 0
-486 -62 0
-486 -44 0
-486 -45 0
-486 -46 0
-486 -47 0
-486 -48 0
-486 -49 0
-486 -50 0
-486 -51 0
-486 -52 0
-486 -53 0
-486 -54 0
-486 -55 0
-486 -56 0
-486 -57 0
-486 -58 0
-486 -63 0
-487 -202 0
-487 -42 0
-487 -95 0
-487 -154 0
-487 -155 0
-487 -156 0
-487 -157 0
-487 -120 0
-487 -158 0
-487 -159 0
-487 -145 0
-487 -160 0
-487 -161 0
-487 -162 0
-487 -163 0
-487 -164 0
-487 -165 0
-487 -166 0
-487 -110 0
-488 -202 0
-488 -42 0
-488 -112 0
-488 -154 0
-488 -155 0
-488 -156 0
-488 -157 0
-488 -120 0
-488 -158 0
-488 -159 0
-488 -145 0
-488 -160 0
-488 -161 0
-488 -162 0
-488 -163 0
-488 -164 0
-488 -165 0
-488 -166 0
-488 -113 0
-489 -244 0
-489 -42 0
-489 -43 0
-489 -44 0
-489 -45 0
-489 -46 0
-489 -47 0
-489 -48 0
-489 -49 0
-489 -50 0
-489 -51 0
-489 -52 0
-489 -53 0
-489 -54 0
-489 -55 0
-489 -56 0
-489 -57 0
-489 -173 0
-489 -60 0
-490 -244 0
-490 -42 0
-490 -62 0
-490 -44 0
-490 -45 0
-490 -46 0
-490 -47 0
-490 -48 0
-490 -49 0
-490 -50 0
-490 -51 0
-490 -52 0
-490 -53 0
-490 -54 0
-490 -55 0
-490 -56 0
-490 -57 0
-490 -173 0
-490 -63 0
-491 -232 0
-491 -42 0
-491 -95 0
-491 -154 0
-491 -155 0
-491 -156 0
-491 -157 0
-491 -120 0
-491 -158 0
-491 -159 0
-491 -145 0
-491 -160 0
-491 -161 0
-491 -162 0
-491 -163 0
-491 -164 0
-491 -165 0
-491 -195 0
-491 -110 0
-492 -232 0
-492 -42 0
-492 -112 0
-492 -154 0
-492 -155 0
-492 -156 0
-492 -157 0
-492 -120 0
-492 -158 0
-492 -159 0
-492 -145 0
-492 -160 0
-492 -161 0
-492 -162 0
-492 -163 0
-492 -164 0
-492 -165 0
-492 -195 0
-492 -113 0
-493 -218 0
-493 -469 0
-493 -95 0
-493 -249 0
-493 -68 0
-493 -250 0
-493 -251 0
-493 -142 0
-493 -121 0
-493 -252 0
-493 -253 0
-493 -254 0
-493 -53 0
-493 -255 0
-493 -256 0
-493 -298 0
-493 -258 0
-493 -229 0
-493 -110 0
-494 -218 0
-494 -469 0
-494 -112 0
-494 -249 0
-494 -68 0
-494 -250 0
-494 -251 0
-494 -142 0
-494 -121 0
-494 -252 0
-494 -253 0
-494 -254 0
-494 -53 0
-494 -255 0
-494 -256 0
-494 -298 0
-494 -258 0
-494 -229 0
-494 -113 0
-495 -239 0
-495 -469 0
-495 -66 0
-495 -262 0
-495 -301 0
-495 -98 0
-495 -264 0
-495 -120 0
-495 -265 0
-495 -266 0
-495 -267 0
-495 -268 0
-495 -269 0
-495 -270 0
-495 -271 0
-495 -272 0
-495 -273 0
-495 -58 0
-495 -82 0
-496 -239 0
-496 -469 0
-496 -84 0
-496 -262 0
-496 -301 0
-496 -98 0
-496 -264 0
-496 -120 0
-496 -265 0
-496 -266 0
-496 -267 0
-496 -268 0
-496 -269 0
-496 -270 0
-496 -271 0
-496 -272 0
-496 -273 0
-496 -58 0
-496 -85 0
-497 -235 0
-497 -469 0
-497 -95 0
-497 -249 0
-497 -68 0
-497 -250 0
-497 -251 0
-497 -142 0
-497 -121 0
-497 -252 0
-497 -253 0
-497 -254 0
-497 -53 0
-497 -255 0
-497 -256 0
-497 -298 0
-497 -258 0
-497 -236 0
-497 -110 0
-498 -235 0
-498 -469 0
-498 -112 0
-498 -249 0
-498 -68 0
-498 -250 0
-498 -251 0
-498 -142 0
-498 -121 0
-498 -252 0
-498 -253 0
-498 -254 0
-498 -53 0
-498 -255 0
-498 -256 0
-498 -298 0
-498 -258 0
-498 -236 0
-498 -113 0
-499 -244 0
-499 -469 0
-499 -66 0
-499 -262 0
-499 -301 0
-499 -98 0
-499 -264 0
-499 -120 0
-499 -265 0
-499 -266 0
-499 -267 0
-499 -268 0
-499 -269 0
-499 -270 0
-499 -271 0
-499 -272 0
-499 -273 0
-499 -173 0
-499 -82 0
-500 -244 0
-500 -469 0
-500 -84 0
-500 -262 0
-500 -301 0
-500 -98 0
-500 -264 0
-500 -120 0
-500 -265 0
-500 -266 0
-500 -267 0
-500 -268 0
-500 -269 0
-500 -270 0
-500 -271 0
-500 -272 0
-500 -273 0
-500 -173 0
-500 -85 0
-501 -218 0
-501 -65 0
3 24 -502 0
-3 -24 -502 0
3 -24 502 0
-3 24 502 0
-501 -502 0
-501 -116 0
-501 -308 0
-501 -309 0
-501 -310 0
-501 -311 0
-501 -312 0
-501 -159 0
-501 -313 0
-501 -314 0
-501 -210 0
-501 -315 0
-501 -316 0
-501 -272 0
-501 -317 0
-501 -229 0
-501 -81 0
-503 -218 0
-503 -91 0
-503 -502 0
-503 -116 0
-503 -308 0
-503 -309 0
-503 -310 0
-503 -311 0
-503 -312 0
-503 -159 0
-503 -313 0
-503 -314 0
-503 -210 0
-503 -315 0
-503 -316 0
-503 -272 0
-503 -317 0
-503 -229 0
-503 -92 0
-504 -202 0
-504 -42 0
-504 -112 0
-504 -154 0
-504 -155 0
-504 -156 0
-504 -157 0
-504 -120 0
-504 -158 0
-504 -159 0
-504 -145 0
-504 -160 0
-504 -161 0
-504 -162 0
-504 -163 0
-504 -164 0
-504 -165 0
-504 -166 0
-504 -59 0
-505 -202 0
-505 -87 0
-505 -112 0
-505 -154 0
-505 -155 0
-505 -156 0
-505 -157 0
-505 -120 0
-505 -158 0
-505 -159 0
-505 -145 0
-505 -160 0
-505 -161 0
-505 -162 0
-505 -163 0
-505 -164 0
-505 -165 0
-505 -166 0
-505 -88 0
-506 -235 0
-506 -65 0
-506 -502 0
-506 -116 0
-506 -308 0
-506 -309 0
-506 -310 0
-506 -311 0
-506 -312 0
-506 -159 0
-506 -313 0
-506 -314 0
-506 -210 0
-506 -315 0
-506 -316 0
-506 -272 0
-506 -317 0
-506 -236 0
-506 -81 0
-507 -235 0
-507 -91 0
-507 -502 0
-507 -116 0
-507 -308 0
-507 -309 0
-507 -310 0
-507 -311 0
-507 -312 0
-507 -159 0
-507 -313 0
-507 -314 0
-507 -210 0
-507 -315 0
-507 -316 0
-507 -272 0
-507 -317 0
-507 -236 0
-507 -92 0
-508 -232 0
-508 -42 0
-508 -112 0
-508 -154 0
-508 -155 0
-508 -156 0
-508 -157 0
-508 -120 0
-508 -158 0
-508 -159 0
-508 -145 0
-508 -160 0
-508 -161 0
-508 -162 0
-508 -163 0
-508 -164 0
-508 -165 0
-508 -195 0
-508 -59 0
-509 -232 0
-509 -87 0
-509 -112 0
-509 -154 0
-509 -155 0
-509 -156 0
-509 -157 0
-509 -120 0
-509 -158 0
-509 -159 0
-509 -145 0
-509 -160 0
-509 -161 0
-509 -162 0
-509 -163 0
-509 -164 0
-509 -165 0
-509 -195 0
-509 -88 0
-510 -202 0
-510 -115 0
3 36 -511 0
-3 -36 -511 0
3 -36 511 0
-3 36 511 0
-510 -511 0
-510 -327 0
-510 -328 0
-510 -329 0
-510 -310 0
-510 -330 0
-510 -331 0
-510 -332 0
-510 -333 0
-510 -268 0
-510 -53 0
-510 -334 0
-510 -226 0
-510 -335 0
-510 -79 0
-510 -166 0
-510 -129 0
-512 -202 0
-512 -134 0
-512 -511 0
-512 -327 0
-512 -328 0
-512 -329 0
-512 -310 0
-512 -330 0
-512 -331 0
-512 -332 0
-512 -333 0
-512 -268 0
-512 -53 0
-512 -334 0
-512 -226 0
-512 -335 0
-512 -79 0
-512 -166 0
-512 -135 0
-513 -239 0
-513 -65 0
3 25 -514 0
-3 -25 -514 0
3 -25 514 0
-3 25 514 0
-513 -514 0
-513 -339 0
-513 -340 0
-513 -341 0
-513 -342 0
-513 -343 0
-513 -344 0
-513 -332 0
-513 -345 0
-513 -209 0
-513 -161 0
-513 -346 0
-513 -256 0
-513 -347 0
-513 -150 0
-513 -58 0
-513 -81 0
-515 -239 0
-515 -91 0
-515 -514 0
-515 -339 0
-515 -340 0
-515 -341 0
-515 -342 0
-515 -343 0
-515 -344 0
-515 -332 0
-515 -345 0
-515 -209 0
-515 -161 0
-515 -346 0
-515 -256 0
-515 -347 0
-515 -150 0
-515 -58 0
-515 -92 0
-516 -232 0
-516 -115 0
-516 -511 0
-516 -327 0
-516 -328 0
-516 -329 0
-516 -310 0
-516 -330 0
-516 -331 0
-516 -332 0
-516 -333 0
-516 -268 0
-516 -53 0
-516 -334 0
-516 -226 0
-516 -335 0
-516 -79 0
-516 -195 0
-516 -129 0
-517 -232 0
-517 -134 0
-517 -511 0
-517 -327 0
-517 -328 0
-517 -329 0
-517 -310 0
-517 -330 0
-517 -331 0
-517 -332 0
-517 -333 0
-517 -268 0
-517 -53 0
-517 -334 0
-517 -226 0
-517 -335 0
-517 -79 0
-517 -195 0
-517 -135 0
-518 -244 0
-518 -65 0
-518 -514 0
-518 -339 0
-518 -340 0
-518 -341 0
-518 -342 0
-518 -343 0
-518 -344 0
-518 -332 0
-518 -345 0
-518 -209 0
-518 -161 0
-518 -346 0
-518 -256 0
-518 -347 0
-518 -150 0
-518 -173 0
-518 -81 0
-519 -244 0
-519 -91 0
-519 -514 0
-519 -339 0
-519 -340 0
-519 -341 0
-519 -342 0
-519 -343 0
-519 -344 0
-519 -332 0
-519 -345 0
-519 -209 0
-519 -161 0
-519 -346 0
-519 -256 0
-519 -347 0
-519 -150 0
-519 -173 0
-519 -92 0
-520 -239 0
-520 -42 0
-520 -62 0
-520 -44 0
-520 -45 0
-520 -46 0
-520 -47 0
-520 -48 0
-520 -49 0
-520 -50 0
-520 -51 0
-520 -52 0
-520 -53 0
-520 -54 0
-520 -55 0
-520 -56 0
-520 -57 0
-520 -58 0
-520 -59 0
-521 -239 0
-521 -87 0
-521 -62 0
-521 -44 0
-521 -45 0
-521 -46 0
-521 -47 0
-521 -48 0
-521 -49 0
-521 -50 0
-521 -51 0
-521 -52 0
-521 -53 0
-521 -54 0
-521 -55 0
-521 -56 0
-521 -57 0
-521 -58 0
-521 -88 0
-522 -218 0
-522 -115 0
3 37 -523 0
-3 -37 -523 0
3 -37 523 0
-3 37 523 0
-522 -523 0
-522 -96 0
-522 -357 0
-522 -358 0
-522 -342 0
-522 -359 0
-522 -360 0
-522 -50 0
-522 -361 0
-522 -362 0
-522 -269 0
-522 -363 0
-522 -364 0
-522 -213 0
-522 -365 0
-522 -229 0
-522 -129 0
-524 -218 0
-524 -134 0
-524 -523 0
-524 -96 0
-524 -357 0
-524 -358 0
-524 -342 0
-524 -359 0
-524 -360 0
-524 -50 0
-524 -361 0
-524 -362 0
-524 -269 0
-524 -363 0
-524 -364 0
-524 -213 0
-524 -365 0
-524 -229 0
-524 -135 0
-525 -244 0
-525 -42 0
-525 -62 0
-525 -44 0
-525 -45 0
-525 -46 0
-525 -47 0
-525 -48 0
-525 -49 0
-525 -50 0
-525 -51 0
-525 -52 0
-525 -53 0
-525 -54 0
-525 -55 0
-525 -56 0
-525 -57 0
-525 -173 0
-525 -59 0
-526 -244 0
-526 -87 0
-526 -62 0
-526 -44 0
-526 -45 0
-526 -46 0
-526 -47 0
-526 -48 0
-526 -49 0
-526 -50 0
-526 -51 0
-526 -52 0
-526 -53 0
-526 -54 0
-526 -55 0
-526 -56 0
-526 -57 0
-526 -173 0
-526 -88 0
-527 -235 0
-527 -115 0
-527 -523 0
-527 -96 0
-527 -357 0
-527 -358 0
-527 -342 0
-527 -359 0
-527 -360 0
-527 -50 0
-527 -361 0
-527 -362 0
-527 -269 0
-527 -363 0
-527 -364 0
-527 -213 0
-527 -365 0
-527 -236 0
-527 -129 0
-528 -235 0
-528 -134 0
-528 -523 0
-528 -96 0
-528 -357 0
-528 -358 0
-528 -342 0
-528 -359 0
-528 -360 0
-528 -50 0
-528 -361 0
-528 -362 0
-528 -269 0
-528 -363 0
-528 -364 0
-528 -213 0
-528 -365 0
-528 -236 0
-528 -135 0
-529 -218 0
-529 -65 0
-529 -502 0
-529 -116 0
-529 -308 0
-529 -309 0
-529 -310 0
-529 -311 0
-529 -312 0
-529 -159 0
-529 -313 0
-529 -314 0
-529 -210 0
-529 -315 0
-529 -316 0
-529 -272 0
-529 -373 0
-529 -229 0
-529 -81 0
-530 -218 0
-530 -91 0
-530 -502 0
-530 -116 0
-530 -308 0
-530 -309 0
-530 -310 0
-530 -311 0
-530 -312 0
-530 -159 0
-530 -313 0
-530 -314 0
-530 -210 0
-530 -315 0
-530 -316 0
-530 -272 0
-530 -373 0
-530 -229 0
-530 -92 0
-531 -202 0
-531 -42 0
-531 -95 0
-531 -154 0
-531 -155 0
-531 -156 0
-531 -157 0
-531 -120 0
-531 -158 0
-531 -159 0
-531 -145 0
-531 -160 0
-531 -161 0
-531 -162 0
-531 -163 0
-531 -164 0
-531 -165 0
-531 -166 0
-531 -59 0
-532 -202 0
-532 -87 0
-532 -95 0
-532 -154 0
-532 -155 0
-532 -156 0
-532 -157 0
-532 -120 0
-532 -158 0
-532 -159 0
-532 -145 0
-532 -160 0
-532 -161 0
-532 -162 0
-532 -163 0
-532 -164 0
-532 -165 0
-532 -166 0
-532 -88 0
-533 -235 0
-533 -65 0
-533 -502 0
-533 -116 0
-533 -308 0
-533 -309 0
-533 -310 0
-533 -311 0
-533 -312 0
-533 -159 0
-533 -313 0
-533 -314 0
-533 -210 0
-533 -315 0
-533 -316 0
-533 -272 0
-533 -373 0
-533 -236 0
-533 -81 0
-534 -235 0
-534 -91 0
-534 -502 0
-534 -116 0
-534 -308 0
-534 -309 0
-534 -310 0
-534 -311 0
-534 -312 0
-534 -159 0
-534 -313 0
-534 -314 0
-534 -210 0
-534 -315 0
-534 -316 0
-534 -272 0
-534 -373 0
-534 -236 0
-534 -92 0
-535 -232 0
-535 -42 0
-535 -95 0
-535 -154 0
-535 -155 0
-535 -156 0
-535 -157 0
-535 -120 0
-535 -158 0
-535 -159 0
-535 -145 0
-535 -160 0
-535 -161 0
-535 -162 0
-535 -163 0
-535 -164 0
-535 -165 0
-535 -195 0
-535 -59 0
-536 -232 0
-536 -87 0
-536 -95 0
-536 -154 0
-536 -155 0
-536 -156 0
-536 -157 0
-536 -120 0
-536 -158 0
-536 -159 0
-536 -145 0
-536 -160 0
-536 -161 0
-536 -162 0
-536 -163 0
-536 -164 0
-536 -165 0
-536 -195 0
-536 -88 0
-537 -202 0
-537 -115 0
-537 -511 0
-537 -327 0
-537 -328 0
-537 -329 0
-537 -310 0
-537 -330 0
-537 -331 0
-537 -382 0
-537 -333 0
-537 -268 0
-537 -53 0
-537 -334 0
-537 -226 0
-537 -335 0
-537 -79 0
-537 -166 0
-537 -129 0
-538 -202 0
-538 -134 0
-538 -511 0
-538 -327 0
-538 -328 0
-538 -329 0
-538 -310 0
-538 -330 0
-538 -331 0
-538 -382 0
-538 -333 0
-538 -268 0
-538 -53 0
-538 -334 0
-538 -226 0
-538 -335 0
-538 -79 0
-538 -166 0
-538 -135 0
-539 -239 0
-539 -65 0
-539 -514 0
-539 -339 0
-539 -340 0
-539 -341 0
-539 -342 0
-539 -343 0
-539 -344 0
-539 -382 0
-539 -345 0
-539 -209 0
-539 -161 0
-539 -346 0
-539 -256 0
-539 -347 0
-539 -150 0
-539 -58 0
-539 -81 0
-540 -239 0
-540 -91 0
-540 -514 0
-540 -339 0
-540 -340 0
-540 -341 0
-540 -342 0
-540 -343 0
-540 -344 0
-540 -382 0
-540 -345 0
-540 -209 0
-540 -161 0
-540 -346 0
-540 -256 0
-540 -347 0
-540 -150 0
-540 -58 0
-540 -92 0
-541 -232 0
-541 -115 0
-541 -511 0
-541 -327 0
-541 -328 0
-541 -329 0
-541 -310 0
-541 -330 0
-541 -331 0
-541 -382 0
-541 -333 0
-541 -268 0
-541 -53 0
-541 -334 0
-541 -226 0
-541 -335 0
-541 -79 0
-541 -195 0
-541 -129 0
-542 -232 0
-542 -134 0
-542 -511 0
-542 -327 0
-542 -328 0
-542 -329 0
-542 -310 0
-542 -330 0
-542 -331 0
-542 -382 0
-542 -333 0
-542 -268 0
-542 -53 0
-542 -334 0
-542 -226 0
-542 -335 0
-542 -79 0
-542 -195 0
-542 -135 0
-543 -244 0
-543 -65 0
-543 -514 0
-543 -339 0
-543 -340 0
-543 -341 0
-543 -342 0
-543 -343 0
-543 -344 0
-543 -382 0
-543 -345 0
-543 -209 0
-543 -161 0
-543 -346 0
-543 -256 0
-543 -347 0
-543 -150 0
-543 -173 0
-543 -81 0
-544 -244 0
-544 -91 0
-544 -514 0
-544 -339 0
-544 -340 0
-544 -341 0
-544 -342 0
-544 -343 0
-544 -344 0
-544 -382 0
-544 -345 0
-544 -209 0
-544 -161 0
-544 -346 0
-544 -256 0
-544 -347 0
-544 -150 0
-544 -173 0
-544 -92 0
-545 -239 0
-545 -42 0
-545 -43 0
-545 -44 0
-545 -45 0
-545 -46 0
-545 -47 0
-545 -48 0
-545 -49 0
-545 -50 0
-545 -51 0
-545 -52 0
-545 -53 0
-545 -54 0
-545 -55 0
-545 -56 0
-545 -57 0
-545 -58 0
-545 -59 0
-546 -239 0
-546 -87 0
-546 -43 0
-546 -44 0
-546 -45 0
-546 -46 0
-546 -47 0
-546 -48 0
-546 -49 0
-546 -50 0
-546 -51 0
-546 -52 0
-546 -53 0
-546 -54 0
-546 -55 0
-546 -56 0
-546 -57 0
-546 -58 0
-546 -88 0
-547 -218 0
-547 -115 0
-547 -523 0
-547 -96 0
-547 -357 0
-547 -358 0
-547 -342 0
-547 -359 0
-547 -360 0
-547 -50 0
-547 -361 0
-547 -362 0
-547 -269 0
-547 -363 0
-547 -364 0
-547 -213 0
-547 -393 0
-547 -229 0
-547 -129 0
-548 -218 0
-548 -134 0
-548 -523 0
-548 -96 0
-548 -357 0
-548 -358 0
-548 -342 0
-548 -359 0
-548 -360 0
-548 -50 0
-548 -361 0
-548 -362 0
-548 -269 0
-548 -363 0
-548 -364 0
-548 -213 0
-548 -393 0
-548 -229 0
-548 -135 0
-549 -244 0
-549 -42 0
-549 -43 0
-549 -44 0
-549 -45 0
-549 -46 0
-549 -47 0
-549 -48 0
-549 -49 0
-549 -50 0
-549 -51 0
-549 -52 0
-549 -53 0
-549 -54 0
-549 -55 0
-549 -56 0
-549 -57 0
-549 -173 0
-549 -59 0
-550 -244 0
-550 -87 0
-550 -43 0
-550 -44 0
-550 -45 0
-550 -46 0
-550 -47 0
-550 -48 0
-550 -49 0
-550 -50 0
-550 -51 0
-550 -52 0
-550 -53 0
-550 -54 0
-550 -55 0
-550 -56 0
-550 -57 0
-550 -173 0
-550 -88 0
-551 -235 0
-551 -115 0
-551 -523 0
-551 -96 0
-551 -357 0
-551 -358 0
-551 -342 0
-551 -359 0
-551 -360 0
-551 -50 0
-551 -361 0
-551 -362 0
-551 -269 0
-551 -363 0
-551 -364 0
-551 -213 0
-551 -393 0
-551 -236 0
-551 -129 0
-552 -235 0
-552 -134 0
-552 -523 0
-552 -96 0
-552 -357 0
-552 -358 0
-552 -342 0
-552 -359 0
-552 -360 0
-552 -50 0
-552 -361 0
-552 -362 0
-552 -269 0
-552 -363 0
-552 -364 0
-552 -213 0
-552 -393 0
-552 -236 0
-552 -135 0
-553 -239 0
-553 -42 0
-553 -43 0
-553 -45 0
-553 -46 0
-553 -47 0
-553 -48 0
-553 -49 0
-553 -50 0
-553 -51 0
-553 -52 0
-553 -53 0
-553 -54 0
-553 -55 0
-553 -56 0
-553 -57 0
-553 -58 0
-553 -59 0
-553 -60 0
-554 -239 0
-554 -42 0
-554 -62 0
-554 -45 0
-554 -46 0
-554 -47 0
-554 -48 0
-554 -49 0
-554 -50 0
-554 -51 0
-554 -52 0
-554 -53 0
-554 -54 0
-554 -55 0
-554 -56 0
-554 -57 0
-554 -58 0
-554 -59 0
-554 -63 0
-555 -239 0
-555 -87 0
-555 -43 0
-555 -45 0
-555 -46 0
-555 -47 0
-555 -48 0
-555 -49 0
-555 -50 0
-555 -51 0
-555 -52 0
-555 -53 0
-555 -54 0
-555 -55 0
-555 -56 0
-555 -57 0
-555 -58 0
-555 -88 0
-555 -60 0
-556 -239 0
-556 -87 0
-556 -62 0
-556 -45 0
-556 -46 0
-556 -47 0
-556 -48 0
-556 -49 0
-556 -50 0
-556 -51 0
-556 -52 0
-556 -53 0
-556 -54 0
-556 -55 0
-556 -56 0
-556 -57 0
-556 -58 0
-556 -88 0
-556 -63 0
-557 -244 0
-557 -42 0
-557 -43 0
-557 -45 0
-557 -46 0
-557 -47 0
-557 -48 0
-557 -49 0
-557 -50 0
-557 -51 0
-557 -52 0
-557 -53 0
-557 -54 0
-557 -55 0
-557 -56 0
-557 -57 0
-557 -173 0
-557 -59 0
-557 -60 0
-558 -244 0
-558 -42 0
-558 -62 0
-558 -45 0
-558 -46 0
-558 -47 0
-558 -48 0
-558 -49 0
-558 -50 0
-558 -51 0
-558 -52 0
-558 -53 0
-558 -54 0
-558 -55 0
-558 -56 0
-558 -57 0
-558 -173 0
-558 -59 0
-558 -63 0
-559 -244 0
-559 -87 0
-559 -43 0
-559 -45 0
-559 -46 0
-559 -47 0
-559 -48 0
-559 -49 0
-559 -50 0
-559 -51 0
-559 -52 0
-559 -53 0
-559 -54 0
-559 -55 0
-559 -56 0
-559 -57 0
-559 -173 0
-559 -88 0
-559 -60 0
-560 -244 0
-560 -87 0
-560 -62 0
-560 -45 0
-560 -46 0
-560 -47 0
-560 -48 0
-560 -49 0
-560 -50 0
-560 -51 0
-560 -52 0
-560 -53 0
-560 -54 0
-560 -55 0
-560 -56 0
-560 -57 0
-560 -173 0
-560 -88 0
-560 -63 0
-561 -202 0
-561 -42 0
-561 -95 0
-561 -155 0
-561 -156 0
-561 -157 0
-561 -120 0
-561 -158 0
-561 -159 0
-561 -145 0
-561 -160 0
-561 -161 0
-561 -162 0
-561 -163 0
-561 -164 0
-561 -165 0
-561 -166 0
-561 -59 0
-561 -110 0
-562 -202 0
-562 -42 0
-562 -112 0
-562 -155 0
-562 -156 0
-562 -157 0
-562 -120 0
-562 -158 0
-562 -159 0
-562 -145 0
-562 -160 0
-562 -161 0
-562 -162 0
-562 -163 0
-562 -164 0
-562 -165 0
-562 -166 0
-562 -59 0
-562 -113 0
-563 -202 0
-563 -87 0
-563 -95 0
-563 -155 0
-563 -156 0
-563 -157 0
-563 -120 0
-563 -158 0
-563 -159 0
-563 -145 0
-563 -160 0
-563 -161 0
-563 -162 0
-563 -163 0
-563 -164 0
-563 -165 0
-563 -166 0
-563 -88 0
-563 -110 0
-564 -202 0
-564 -87 0
-564 -112 0
-564 -155 0
-564 -156 0
-564 -157 0
-564 -120 0
-564 -158 0
-564 -159 0
-564 -145 0
-564 -160 0
-564 -161 0
-564 -162 0
-564 -163 0
-564 -164 0
-564 -165 0
-564 -166 0
-564 -88 0
-564 -113 0
-565 -232 0
-565 -42 0
-565 -95 0
-565 -155 0
-565 -156 0
-565 -157 0
-565 -120 0
-565 -158 0
-565 -159 0
-565 -145 0
-565 -160 0
-565 -161 0
-565 -162 0
-565 -163 0
-565 -164 0
-565 -165 0
-565 -195 0
-565 -59 0
-565 -110 0
-566 -232 0
-566 -42 0
-566 -112 0
-566 -155 0
-566 -156 0
-566 -157 0
-566 -120 0
-566 -158 0
-566 -159 0
-566 -145 0
-566 -160 0
-566 -161 0
-566 -162 0
-566 -163 0
-566 -164 0
-566 -165 0
-566 -195 0
-566 -59 0
-566 -113 0
-567 -232 0
-567 -87 0
-567 -95 0
-567 -155 0
-567 -156 0
-567 -157 0
-567 -120 0
-567 -158 0
-567 -159 0
-567 -145 0
-567 -160 0
-567 -161 0
-567 -162 0
-567 -163 0
-567 -164 0
-567 -165 0
-567 -195 0
-567 -88 0
-567 -110 0
-568 -232 0
-568 -87 0
-568 -112 0
-568 -155 0
-568 -156 0
-568 -157 0
-568 -120 0
-568 -158 0
-568 -159 0
-568 -145 0
-568 -160 0
-568 -161 0
-568 -162 0
-568 -163 0
-568 -164 0
-568 -165 0
-568 -195 0
-568 -88 0
-568 -113 0
-569 -202 0
-569 -42 0
-569 -95 0
-569 -154 0
-569 -155 0
-569 -156 0
-569 -157 0
-569 -120 0
-569 -158 0
-569 -159 0
-569 -145 0
-569 -160 0
-569 -161 0
-569 -162 0
-569 -163 0
-569 -164 0
-569 -166 0
-569 -59 0
-569 -110 0
-570 -202 0
-570 -42 0
-570 -112 0
-570 -154 0
-570 -155 0
-570 -156 0
-570 -157 0
-570 -120 0
-570 -158 0
-570 -159 0
-570 -145 0
-570 -160 0
-570 -161 0
-570 -162 0
-570 -163 0
-570 -164 0
-570 -166 0
-570 -59 0
-570 -113 0
-571 -202 0
-571 -87 0
-571 -95 0
-571 -154 0
-571 -155 0
-571 -156 0
-571 -157 0
-571 -120 0
-571 -158 0
-571 -159 0
-571 -145 0
-571 -160 0
-571 -161 0
-571 -162 0
-571 -163 0
-571 -164 0
-571 -166 0
-571 -88 0
-571 -110 0
-572 -202 0
-572 -87 0
-572 -112 0
-572 -154 0
-572 -155 0
-572 -156 0
-572 -157 0
-572 -120 0
-572 -158 0
-572 -159 0
-572 -145 0
-572 -160 0
-572 -161 0
-572 -162 0
-572 -163 0
-572 -164 0
-572 -166 0
-572 -88 0
-572 -113 0
-573 -232 0
-573 -42 0
-573 -95 0
-573 -154 0
-573 -155 0
-573 -156 0
-573 -157 0
-573 -120 0
-573 -158 0
-573 -159 0
-573 -145 0
-573 -160 0
-573 -161 0
-573 -162 0
-573 -163 0
-573 -164 0
-573 -195 0
-573 -59 0
-573 -110 0
-574 -232 0
-574 -42 0
-574 -112 0
-574 -154 0
-574 -155 0
-574 -156 0
-574 -157 0
-574 -120 0
-574 -158 0
-574 -159 0
-574 -145 0
-574 -160 0
-574 -161 0
-574 -162 0
-574 -163 0
-574 -164 0
-574 -195 0
-574 -59 0
-574 -113 0
-575 -232 0
-575 -87 0
-575 -95 0
-575 -154 0
-575 -155 0
-575 -156 0
-575 -157 0
-575 -120 0
-575 -158 0
-575 -159 0
-575 -145 0
-575 -160 0
-575 -161 0
-575 -162 0
-575 -163 0
-575 -164 0
-575 -195 0
-575 -88 0
-575 -110 0
-576 -232 0
-576 -87 0
-576 -112 0
-576 -154 0
-576 -155 0
-576 -156 0
-576 -157 0
-576 -120 0
-576 -158 0
-576 -159 0
-576 -145 0
-576 -160 0
-576 -161 0
-576 -162 0
-576 -163 0
-576 -164 0
-576 -195 0
-576 -88 0
-576 -113 0
-577 -239 0
-577 -42 0
-577 -43 0
-577 -44 0
-577 -45 0
-577 -46 0
-577 -47 0
-577 -48 0
-577 -49 0
-577 -50 0
-577 -51 0
-577 -52 0
-577 -53 0
-577 -54 0
-577 -55 0
-577 -56 0
-577 -58 0
-577 -59 0
-577 -60 0
-578 -239 0
-578 -42 0
-578 -62 0
-578 -44 0
-578 -45 0
-578 -46 0
-578 -47 0
-578 -48 0
-578 -49 0
-578 -50 0
-578 -51 0
-578 -52 0
-578 -53 0
-578 -54 0
-578 -55 0
-578 -56 0
-578 -58 0
-578 -59 0
-578 -63 0
-579 -239 0
-579 -87 0
-579 -43 0
-579 -44 0
-579 -45 0
-579 -46 0
-579 -47 0
-579 -48 0
-579 -49 0
-579 -50 0
-579 -51 0
-579 -52 0
-579 -53 0
-579 -54 0
-579 -55 0
-579 -56 0
-579 -58 0
-579 -88 0
-579 -60 0
-580 -239 0
-580 -87 0
-580 -62 0
-580 -44 0
-580 -45 0
-580 -46 0
-580 -47 0
-580 -48 0
-580 -49 0
-580 -50 0
-580 -51 0
-580 -52 0
-580 -53 0
-580 -54 0
-580 -55 0
-580 -56 0
-580 -58 0
-580 -88 0
-580 -63 0
-581 -244 0
-581 -42 0
-581 -43 0
-581 -44 0
-581 -45 0
-581 -46 0
-581 -47 0
-581 -48 0
-581 -49 0
-581 -50 0
-581 -51 0
-581 -52 0
-581 -53 0
-581 -54 0
-581 -55 0
-581 -56 0
-581 -173 0
-581 -59 0
-581 -60 0
-582 -244 0
-582 -42 0
-582 -62 0
-582 -44 0
-582 -45 0
-582 -46 0
-582 -47 0
-582 -48 0
-582 -49 0
-582 -50 0
-582 -51 0
-582 -52 0
-582 -53 0
-582 -54 0
-582 -55 0
-582 -56 0
-582 -173 0
-582 -59 0
-582 -63 0
-583 -244 0
-583 -87 0
-583 -43 0
-583 -44 0
-583 -45 0
-583 -46 0
-583 -47 0
-583 -48 0
-583 -49 0
-583 -50 0
-583 -51 0
-583 -52 0
-583 -53 0
-583 -54 0
-583 -55 0
-583 -56 0
-583 -173 0
-583 -88 0
-583 -60 0
-584 -244 0
-584 -87 0
-584 -62 0
-584 -44 0
-584 -45 0
-584 -46 0
-584 -47 0
-584 -48 0
-584 -49 0
-584 -50 0
-584 -51 0
-584 -52 0
-584 -53 0
-584 -54 0
-584 -55 0
-584 -56 0
-584 -173 0
-584 -88 0
-584 -63 0
-585 -239 0
-585 -42 0
-585 -43 0
-585 -44 0
-585 -46 0
-585 -47 0
-585 -48 0
-585 -49 0
-585 -50 0
-585 -51 0
-585 -52 0
-585 -53 0
-585 -54 0
-585 -55 0
-585 -56 0
-585 -57 0
-585 -58 0
-585 -59 0
-585 -60 0
-586 -239 0
-586 -42 0
-586 -62 0
-586 -44 0
-586 -46 0
-586 -47 0
-586 -48 0
-586 -49 0
-586 -50 0
-586 -51 0
-586 -52 0
-586 -53 0
-586 -54 0
-586 -55 0
-586 -56 0
-586 -57 0
-586 -58 0
-586 -59 0
-586 -63 0
-587 -239 0
-587 -87 0
-587 -43 0
-587 -44 0
-587 -46 0
-587 -47 0
-587 -48 0
-587 -49 0
-587 -50 0
-587 -51 0
-587 -52 0
-587 -53 0
-587 -54 0
-587 -55 0
-587 -56 0
-587 -57 0
-587 -58 0
-587 -88 0
-587 -60 0
-588 -239 0
-588 -87 0
-588 -62 0
-588 -44 0
-588 -46 0
-588 -47 0
-588 -48 0
-588 -49 0
-588 -50 0
-588 -51 0
-588 -52 0
-588 -53 0
-588 -54 0
-588 -55 0
-588 -56 0
-588 -57 0
-588 -58 0
-588 -88 0
-588 -63 0
-589 -244 0
-589 -42 0
-589 -43 0
-589 -44 0
-589 -46 0
-589 -47 0
-589 -48 0
-589 -49 0
-589 -50 0
-589 -51 0
-589 -52 0
-589 -53 0
-589 -54 0
-589 -55 0
-589 -56 0
-589 -57 0
-589 -173 0
-589 -59 0
-589 -60 0
-590 -244 0
-590 -42 0
-590 -62 0
-590 -44 0
-590 -46 0
-590 -47 0
-590 -48 0
-590 -49 0
-590 -50 0
-590 -51 0
-590 -52 0
-590 -53 0
-590 -54 0
-590 -55 0
-590 -56 0
-590 -57 0
-590 -173 0
-590 -59 0
-590 -63 0
-591 -244 0
-591 -87 0
-591 -43 0
-591 -44 0
-591 -46 0
-591 -47 0
-591 -48 0
-591 -49 0
-591 -50 0
-591 -51 0
-591 -52 0
-591 -53 0
-591 -54 0
-591 -55 0
-591 -56 0
-591 -57 0
-591 -173 0
-591 -88 0
-591 -60 0
-592 -244 0
-592 -87 0
-592 -62 0
-592 -44 0
-592 -46 0
-592 -47 0
-592 -48 0
-592 -49 0
-592 -50 0
-592 -51 0
-592 -52 0
-592 -53 0
-592 -54 0
-592 -55 0
-592 -56 0
-592 -57 0
-592 -173 0
-592 -88 0
-592 -63 0
-593 -202 0
-593 -42 0
-593 -95 0
-593 -154 0
-593 -156 0
-593 -157 0
-593 -120 0
-593 -158 0
-593 -159 0
-593 -145 0
-593 -160 0
-593 -161 0
-593 -162 0
-593 -163 0
-593 -164 0
-593 -165 0
-593 -166 0
-593 -59 0
-593 -110 0
-594 -202 0
-594 -42 0
-594 -112 0
-594 -154 0
-594 -156 0
-594 -157 0
-594 -120 0
-594 -158 0
-594 -159 0
-594 -145 0
-594 -160 0
-594 -161 0
-594 -162 0
-594 -163 0
-594 -164 0
-594 -165 0
-594 -166 0
-594 -59 0
-594 -113 0
-595 -202 0
-595 -87 0
-595 -95 0
-595 -154 0
-595 -156 0
-595 -157 0
-595 -120 0
-595 -158 0
-595 -159 0
-595 -145 0
-595 -160 0
-595 -161 0
-595 -162 0
-595 -163 0
-595 -164 0
-595 -165 0
-595 -166 0
-595 -88 0
-595 -110 0
-596 -202 0
-596 -87 0
-596 -112 0
-596 -154 0
-596 -156 0
-596 -157 0
-596 -120 0
-596 -158 0
-596 -159 0
-596 -145 0
-596 -160 0
-596 -161 0
-596 -162 0
-596 -163 0
-596 -164 0
-596 -165 0
-596 -166 0
-596 -88 0
-596 -113 0
-597 -232 0
-597 -42 0
-597 -95 0
-597 -154 0
-597 -156 0
-597 -157 0
-597 -120 0
-597 -158 0
-597 -159 0
-597 -145 0
-597 -160 0
-597 -161 0
-597 -162 0
-597 -163 0
-597 -164 0
-597 -165 0
-597 -195 0
-597 -59 0
-597 -110 0
-598 -232 0
-598 -42 0
-598 -112 0
-598 -154 0
-598 -156 0
-598 -157 0
-598 -120 0
-598 -158 0
-598 -159 0
-598 -145 0
-598 -160 0
-598 -161 0
-598 -162 0
-598 -163 0
-598 -164 0
-598 -165 0
-598 -195 0
-598 -59 0
-598 -113 0
-599 -232 0
-599 -87 0
-599 -95 0
-599 -154 0
-599 -156 0
-599 -157 0
-599 -120 0
-599 -158 0
-599 -159 0
-599 -145 0
-599 -160 0
-599 -161 0
-599 -162 0
-599 -163 0
-599 -164 0
-599 -165 0
-599 -195 0
-599 -88 0
-599 -110 0
-600 -232 0
-600 -87 0
-600 -112 0
-600 -154 0
-600 -156 0
-600 -157 0
-600 -120 0
-600 -158 0
-600 -159 0
-600 -145 0
-600 -160 0
-600 -161 0
-600 -162 0
-600 -163 0
-600 -164 0
-600 -165 0
-600 -195 0
-600 -88 0
-600 -113 0
-601 -202 0
-601 -42 0
-601 -95 0
-601 -154 0
-601 -155 0
-601 -156 0
-601 -157 0
-601 -120 0
-601 -158 0
-601 -159 0
-601 -145 0
-601 -160 0
-601 -161 0
-601 -162 0
-601 -163 0
-601 -165 0
-601 -166 0
-601 -59 0
-601 -110 0
-602 -202 0
-602 -42 0
-602 -112 0
-602 -154 0
-602 -155 0
-602 -156 0
-602 -157 0
-602 -120 0
-602 -158 0
-602 -159 0
-602 -145 0
-602 -160 0
-602 -161 0
-602 -162 0
-602 -163 0
-602 -165 0
-602 -166 0
-602 -59 0
-602 -113 0
-603 -202 0
-603 -87 0
-603 -95 0
-603 -154 0
-603 -155 0
-603 -156 0
-603 -157 0
-603 -120 0
-603 -158 0
-603 -159 0
-603 -145 0
-603 -160 0
-603 -161 0
-603 -162 0
-603 -163 0
-603 -165 0
-603 -166 0
-603 -88 0
-603 -110 0
-604 -202 0
-604 -87 0
-604 -112 0
-604 -154 0
-604 -155 0
-604 -156 0
-604 -157 0
-604 -120 0
-604 -158 0
-604 -159 0
-604 -145 0
-604 -160 0
-604 -161 0
-604 -162 0
-604 -163 0
-604 -165 0
-604 -166 0
-604 -88 0
-604 -113 0
-605 -232 0
-605 -42 0
-605 -95 0
-605 -154 0
-605 -155 0
-605 -156 0
-605 -157 0
-605 -120 0
-605 -158 0
-605 -159 0
-605 -145 0
-605 -160 0
-605 -161 0
-605 -162 0
-605 -163 0
-605 -165 0
-605 -195 0
-605 -59 0
-605 -110 0
-606 -232 0
-606 -42 0
-606 -112 0
-606 -154 0
-606 -155 0
-606 -156 0
-606 -157 0
-606 -120 0
-606 -158 0
-606 -159 0
-606 -145 0
-606 -160 0
-606 -161 0
-606 -162 0
-606 -163 0
-606 -165 0
-606 -195 0
-606 -59 0
-606 -113 0
-607 -232 0
-607 -87 0
-607 -95 0
-607 -154 0
-607 -155 0
-607 -156 0
-607 -157 0
-607 -120 0
-607 -158 0
-607 -159 0
-607 -145 0
-607 -160 0
-607 -161 0
-607 -162 0
-607 -163 0
-607 -165 0
-607 -195 0
-607 -88 0
-607 -110 0
-608 -232 0
-608 -87 0
-608 -112 0
-608 -154 0
-608 -155 0
-608 -156 0
-608 -157 0
-608 -120 0
-608 -158 0
-608 -159 0
-608 -145 0
-608 -160 0
-608 -161 0
-608 -162 0
-608 -163 0
-608 -165 0
-608 -195 0
-608 -88 0
-608 -113 0
-609 -239 0
-609 -42 0
-609 -43 0
-609 -44 0
-609 -45 0
-609 -46 0
-609 -47 0
-609 -48 0
-609 -49 0
-609 -50 0
-609 -51 0
-609 -52 0
-609 -53 0
-609 -54 0
-609 -55 0
-609 -57 0
-609 -58 0
-609 -59 0
-609 -60 0
-610 -239 0
-610 -42 0
-610 -62 0
-610 -44 0
-610 -45 0
-610 -46 0
-610 -47 0
-610 -48 0
-610 -49 0
-610 -50 0
-610 -51 0
-610 -52 0
-610 -53 0
-610 -54 0
-610 -55 0
-610 -57 0
-610 -58 0
-610 -59 0
-610 -63 0
-611 -239 0
-611 -87 0
-611 -43 0
-611 -44 0
-611 -45 0
-611 -46 0
-611 -47 0
-611 -48 0
-611 -49 0
-611 -50 0
-611 -51 0
-611 -52 0
-611 -53 0
-611 -54 0
-611 -55 0
-611 -57 0
-611 -58 0
-611 -88 0
-611 -60 0
-612 -239 0
-612 -87 0
-612 -62 0
-612 -44 0
-612 -45 0
-612 -46 0
-612 -47 0
-612 -48 0
-612 -49 0
-612 -50 0
-612 -51 0
-612 -52 0
-612 -53 0
-612 -54 0
-612 -55 0
-612 -57 0
-612 -58 0
-612 -88 0
-612 -63 0
-613 -244 0
-613 -42 0
-613 -43 0
-613 -44 0
-613 -45 0
-613 -46 0
-613 -47 0
-613 -48 0
-613 -49 0
-613 -50 0
-613 -51 0
-613 -52 0
-613 -53 0
-613 -54 0
-613 -55 0
-613 -57 0
-613 -173 0
-613 -59 0
-613 -60 0
-614 -244 0
-614 -42 0
-614 -62 0
-614 -44 0
-614 -45 0
-614 -46 0
-614 -47 0
-614 -48 0
-614 -49 0
-614 -50 0
-614 -51 0
-614 -52 0
-614 -53 0
-614 -54 0
-614 -55 0
-614 -57 0
-614 -173 0
-614 -59 0
-614 -63 0
-615 -244 0
-615 -87 0
-615 -43 0
-615 -44 0
-615 -45 0
-615 -46 0
-615 -47 0
-615 -48 0
-615 -49 0
-615 -50 0
-615 -51 0
-615 -52 0
-615 -53 0
-615 -54 0
-615 -55 0
-615 -57 0
-615 -173 0
-615 -88 0
-615 -60 0
-616 -244 0
-616 -87 0
-616 -62 0
-616 -44 0
-616 -45 0
-616 -46 0
-616 -47 0
-616 -48 0
-616 -49 0
-616 -50 0
-616 -51 0
-616 -52 0
-616 -53 0
-616 -54 0
-616 -55 0
-616 -57 0
-616 -173 0
-616 -88 0
-616 -63 0
-617 -239 0
-617 -42 0
-617 -43 0
-617 -44 0
-617 -45 0
-617 -47 0
-617 -48 0
-617 -49 0
-617 -50 0
-617 -51 0
-617 -52 0
-617 -53 0
-617 -54 0
-617 -55 0
-617 -56 0
-617 -57 0
-617 -58 0
-617 -59 0
-617 -60 0
-618 -239 0
-618 -42 0
-618 -62 0
-618 -44 0
-618 -45 0
-618 -47 0
-618 -48 0
-618 -49 0
-618 -50 0
-618 -51 0
-618 -52 0
-618 -53 0
-618 -54 0
-618 -55 0
-618 -56 0
-618 -57 0
-618 -58 0
-618 -59 0
-618 -63 0
-619 -239 0
-619 -87 0
-619 -43 0
-619 -44 0
-619 -45 0
-619 -47 0
-619 -48 0
-619 -49 0
-619 -50 0
-619 -51 0
-619 -52 0
-619 -53 0
-619 -54 0
-619 -55 0
-619 -56 0
-619 -57 0
-619 -58 0
-619 -88 0
-619 -60 0
-620 -239 0
-620 -87 0
-620 -62 0
-620 -44 0
-620 -45 0
-620 -47 0
-620 -48 0
-620 -49 0
-620 -50 0
-620 -51 0
-620 -52 0
-620 -53 0
-620 -54 0
-620 -55 0
-620 -56 0
-620 -57 0
-620 -58 0
-620 -88 0
-620 -63 0
-621 -244 0
-621 -42 0
-621 -43 0
-621 -44 0
-621 -45 0
-621 -47 0
-621 -48 0
-621 -49 0
-621 -50 0
-621 -51 0
-621 -52 0
-621 -53 0
-621 -54 0
-621 -55 0
-621 -56 0
-621 -57 0
-621 -173 0
-621 -59 0
-621 -60 0
-622 -244 0
-622 -42 0
-622 -62 0
-622 -44 0
-622 -45 0
-622 -47 0
-622 -48 0
-622 -49 0
-622 -50 0
-622 -51 0
-622 -52 0
-622 -53 0
-622 -54 0
-622 -55 0
-622 -56 0
-622 -57 0
-622 -173 0
-622 -59 0
-622 -63 0
-623 -244 0
-623 -87 0
-623 -43 0
-623 -44 0
-623 -45 0
-623 -47 0
-623 -48 0
-623 -49 0
-623 -50 0
-623 -51 0
-623 -52 0
-623 -53 0
-623 -54 0
-623 -55 0
-623 -56 0
-623 -57 0
-623 -173 0
-623 -88 0
-623 -60 0
-624 -244 0
-624 -87 0
-624 -62 0
-624 -44 0
-624 -45 0
-624 -47 0
-624 -48 0
-624 -49 0
-624 -50 0
-624 -51 0
-624 -52 0
-624 -53 0
-624 -54 0
-624 -55 0
-624 -56 0
-624 -57 0
-624 -173 0
-624 -88 0
-624 -63 0
-625 -202 0
-625 -42 0
-625 -95 0
-625 -154 0
-625 -155 0
-625 -157 0
-625 -120 0
-625 -158 0
-625 -159 0
-625 -145 0
-625 -160 0
-625 -161 0
-625 -162 0
-625 -163 0
-625 -164 0
-625 -165 0
-625 -166 0
-625 -59 0
-625 -110 0
-626 -202 0
-626 -42 0
-626 -112 0
-626 -154 0
-626 -155 0
-626 -157 0
-626 -120 0
-626 -158 0
-626 -159 0
-626 -145 0
-626 -160 0
-626 -161 0
-626 -162 0
-626 -163 0
-626 -164 0
-626 -165 0
-626 -166 0
-626 -59 0
-626 -113 0
-627 -202 0
-627 -87 0
-627 -95 0
-627 -154 0
-627 -155 0
-627 -157 0
-627 -120 0
-627 -158 0
-627 -159 0
-627 -145 0
-627 -160 0
-627 -161 0
-627 -162 0
-627 -163 0
-627 -164 0
-627 -165 0
-627 -166 0
-627 -88 0
-627 -110 0
-628 -202 0
-628 -87 0
-628 -112 0
-628 -154 0
-628 -155 0
-628 -157 0
-628 -120 0
-628 -158 0
-628 -159 0
-628 -145 0
-628 -160 0
-628 -161 0
-628 -162 0
-628 -163 0
-628 -164 0
-628 -165 0
-628 -166 0
-628 -88 0
-628 -113 0
-629 -232 0
-629 -42 0
-629 -95 0
-629 -154 0
-629 -155 0
-629 -157 0
-629 -120 0
-629 -158 0
-629 -159 0
-629 -145 0
-629 -160 0
-629 -161 0
-629 -162 0
-629 -163 0
-629 -164 0
-629 -165 0
-629 -195 0
-629 -59 0
-629 -110 0
-630 -232 0
-630 -42 0
-630 -112 0
-630 -154 0
-630 -155 0
-630 -157 0
-630 -120 0
-630 -158 0
-630 -159 0
-630 -145 0
-630 -160 0
-630 -161 0
-630 -162 0
-630 -163 0
-630 -164 0
-630 -165 0
-630 -195 0
-630 -59 0
-630 -113 0
-631 -232 0
-631 -87 0
-631 -95 0
-631 -154 0
-631 -155 0
-631 -157 0
-631 -120 0
-631 -158 0
-631 -159 0
-631 -145 0
-631 -160 0
-631 -161 0
-631 -162 0
-631 -163 0
-631 -164 0
-631 -165 0
-631 -195 0
-631 -88 0
-631 -110 0
-632 -232 0
-632 -87 0
-632 -112 0
-632 -154 0
-632 -155 0
-632 -157 0
-632 -120 0
-632 -158 0
-632 -159 0
-632 -145 0
-632 -160 0
-632 -161 0
-632 -162 0
-632 -163 0
-632 -164 0
-632 -165 0
-632 -195 0
-632 -88 0
-632 -113 0
-633 -202 0
-633 -42 0
-633 -95 0
-633 -154 0
-633 -155 0
-633 -156 0
-633 -157 0
-633 -120 0
-633 -158 0
-633 -159 0
-633 -145 0
-633 -160 0
-633 -161 0
-633 -162 0
-633 -164 0
-633 -165 0
-633 -166 0
-633 -59 0
-633 -110 0
-634 -202 0
-634 -42 0
-634 -112 0
-634 -154 0
-634 -155 0
-634 -156 0
-634 -157 0
-634 -120 0
-634 -158 0
-634 -159 0
-634 -145 0
-634 -160 0
-634 -161 0
-634 -162 0
-634 -164 0
-634 -165 0
-634 -166 0
-634 -59 0
-634 -113 0
-635 -202 0
-635 -87 0
-635 -95 0
-635 -154 0
-635 -155 0
-635 -156 0
-635 -157 0
-635 -120 0
-635 -158 0
-635 -159 0
-635 -145 0
-635 -160 0
-635 -161 0
-635 -162 0
-635 -164 0
-635 -165 0
-635 -166 0
-635 -88 0
-635 -110 0
-636 -202 0
-636 -87 0
-636 -112 0
-636 -154 0
-636 -155 0
-636 -156 0
-636 -157 0
-636 -120 0
-636 -158 0
-636 -159 0
-636 -145 0
-636 -160 0
-636 -161 0
-636 -162 0
-636 -164 0
-636 -165 0
-636 -166 0
-636 -88 0
-636 -113 0
-637 -232 0
-637 -42 0
-637 -95 0
-637 -154 0
-637 -155 0
-637 -156 0
-637 -157 0
-637 -120 0
-637 -158 0
-637 -159 0
-637 -145 0
-637 -160 0
-637 -161 0
-637 -162 0
-637 -164 0
-637 -165 0
-637 -195 0
-637 -59 0
-637 -110 0
-638 -232 0
-638 -42 0
-638 -112 0
-638 -154 0
-638 -155 0
-638 -156 0
-638 -157 0
-638 -120 0
-638 -158 0
-638 -159 0
-638 -145 0
-638 -160 0
-638 -161 0
-638 -162 0
-638 -164 0
-638 -165 0
-638 -195 0
-638 -59 0
-638 -113 0
-639 -232 0
-639 -87 0
-639 -95 0
-639 -154 0
-639 -155 0
-639 -156 0
-639 -157 0
-639 -120 0
-639 -158 0
-639 -159 0
-639 -145 0
-639 -160 0
-639 -161 0
-639 -162 0
-639 -164 0
-639 -165 0
-639 -195 0
-639 -88 0
-639 -110 0
-640 -232 0
-640 -87 0
-640 -112 0
-640 -154 0
-640 -155 0
-640 -156 0
-640 -157 0
-640 -120 0
-640 -158 0
-640 -159 0
-640 -145 0
-640 -160 0
-640 -161 0
-640 -162 0
-640 -164 0
-640 -165 0
-640 -195 0
-640 -88 0
-640 -113 0
-641 -239 0
-641 -42 0
-641 -43 0
-641 -44 0
-641 -45 0
-641 -46 0
-641 -47 0
-641 -48 0
-641 -49 0
-641 -50 0
-641 -51 0
-641 -52 0
-641 -53 0
-641 -54 0
-641 -56 0
-641 -57 0
-641 -58 0
-641 -59 0
-641 -60 0
-642 -239 0
-642 -42 0
-642 -62 0
-642 -44 0
-642 -45 0
-642 -46 0
-642 -47 0
-642 -48 0
-642 -49 0
-642 -50 0
-642 -51 0
-642 -52 0
-642 -53 0
-642 -54 0
-642 -56 0
-642 -57 0
-642 -58 0
-642 -59 0
-642 -63 0
-643 -239 0
-643 -87 0
-643 -43 0
-643 -44 0
-643 -45 0
-643 -46 0
-643 -47 0
-643 -48 0
-643 -49 0
-643 -50 0
-643 -51 0
-643 -52 0
-643 -53 0
-643 -54 0
-643 -56 0
-643 -57 0
-643 -58 0
-643 -88 0
-643 -60 0
-644 -239 0
-644 -87 0
-644 -62 0
-644 -44 0
-644 -45 0
-644 -46 0
-644 -47 0
-644 -48 0
-644 -49 0
-644 -50 0
-644 -51 0
-644 -52 0
-644 -53 0
-644 -54 0
-644 -56 0
-644 -57 0
-644 -58 0
-644 -88 0
-644 -63 0
-645 -244 0
-645 -42 0
-645 -43 0
-645 -44 0
-645 -45 0
-645 -46 0
-645 -47 0
-645 -48 0
-645 -49 0
-645 -50 0
-645 -51 0
-645 -52 0
-645 -53 0
-645 -54 0
-645 -56 0
-645 -57 0
-645 -173 0
-645 -59 0
-645 -60 0
-646 -244 0
-646 -42 0
-646 -62 0
-646 -44 0
-646 -45 0
-646 -46 0
-646 -47 0
-646 -48 0
-646 -49 0
-646 -50 0
-646 -51 0
-646 -52 0
-646 -53 0
-646 -54 0
-646 -56 0
-646 -57 0
-646 -173 0
-646 -59 0
-646 -63 0
-647 -244 0
-647 -87 0
-647 -43 0
-647 -44 0
-647 -45 0
-647 -46 0
-647 -47 0
-647 -48 0
-647 -49 0
-647 -50 0
-647 -51 0
-647 -52 0
-647 -53 0
-647 -54 0
-647 -56 0
-647 -57 0
-647 -173 0
-647 -88 0
-647 -60 0
-648 -244 0
-648 -87 0
-648 -62 0
-648 -44 0
-648 -45 0
-648 -46 0
-648 -47 0
-648 -48 0
-648 -49 0
-648 -50 0
-648 -51 0
-648 -52 0
-648 -53 0
-648 -54 0
-648 -56 0
-648 -57 0
-648 -173 0
-648 -88 0
-648 -63 0
-649 -239 0
-649 -42 0
-649 -43 0
-649 -44 0
-649 -45 0
-649 -46 0
-649 -48 0
-649 -49 0
-649 -50 0
-649 -51 0
-649 -52 0
-649 -53 0
-649 -54 0
-649 -55 0
-649 -56 0
-649 -57 0
-649 -58 0
-649 -59 0
-649 -60 0
-650 -239 0
-650 -42 0
-650 -62 0
-650 -44 0
-650 -45 0
-650 -46 0
-650 -48 0
-650 -49 0
-650 -50 0
-650 -51 0
-650 -52 0
-650 -53 0
-650 -54 0
-650 -55 0
-650 -56 0
-650 -57 0
-650 -58 0
-650 -59 0
-650 -63 0
-651 -239 0
-651 -87 0
-651 -43 0
-651 -44 0
-651 -45 0
-651 -46 0
-651 -48 0
-651 -49 0
-651 -50 0
-651 -51 0
-651 -52 0
-651 -53 0
-651 -54 0
-651 -55 0
-651 -56 0
-651 -57 0
-651 -58 0
-651 -88 0
-651 -60 0
-652 -239 0
-652 -87 0
-652 -62 0
-652 -44 0
-652 -45 0
-652 -46 0
-652 -48 0
-652 -49 0
-652 -50 0
-652 -51 0
-652 -52 0
-652 -53 0
-652 -54 0
-652 -55 0
-652 -56 0
-652 -57 0
-652 -58 0
-652 -88 0
-652 -63 0
-653 -244 0
-653 -42 0
-653 -43 0
-653 -44 0
-653 -45 0
-653 -46 0
-653 -48 0
-653 -49 0
-653 -50 0
-653 -51 0
-653 -52 0
-653 -53 0
-653 -54 0
-653 -55 0
-653 -56 0
-653 -57 0
-653 -173 0
-653 -59 0
-653 -60 0
-654 -244 0
-654 -42 0
-654 -62 0
-654 -44 0
-654 -45 0
-654 -46 0
-654 -48 0
-654 -49 0
-654 -50 0
-654 -51 0
-654 -52 0
-654 -53 0
-654 -54 0
-654 -55 0
-654 -56 0
-654 -57 0
-654 -173 0
-654 -59 0
-654 -63 0
-655 -244 0
-655 -87 0
-655 -43 0
-655 -44 0
-655 -45 0
-655 -46 0
-655 -48 0
-655 -49 0
-655 -50 0
-655 -51 0
-655 -52 0
-655 -53 0
-655 -54 0
-655 -55 0
-655 -56 0
-655 -57 0
-655 -173 0
-655 -88 0
-655 -60 0
-656 -244 0
-656 -87 0
-656 -62 0
-656 -44 0
-656 -45 0
-656 -46 0
-656 -48 0
-656 -49 0
-656 -50 0
-656 -51 0
-656 -52 0
-656 -53 0
-656 -54 0
-656 -55 0
-656 -56 0
-656 -57 0
-656 -173 0
-656 -88 0
-656 -63 0
-657 -202 0
-657 -42 0
-657 -95 0
-657 -154 0
-657 -155 0
-657 -156 0
-657 -120 0
-657 -158 0
-657 -159 0
-657 -145 0
-657 -160 0
-657 -161 0
-657 -162 0
-657 -163 0
-657 -164 0
-657 -165 0
-657 -166 0
-657 -59 0
-657 -110 0
-658 -202 0
-658 -42 0
-658 -112 0
-658 -154 0
-658 -155 0
-658 -156 0
-658 -120 0
-658 -158 0
-658 -159 0
-658 -145 0
-658 -160 0
-658 -161 0
-658 -162 0
-658 -163 0
-658 -164 0
-658 -165 0
-658 -166 0
-658 -59 0
-658 -113 0
-659 -202 0
-659 -87 0
-659 -95 0
-659 -154 0
-659 -155 0
-659 -156 0
-659 -120 0
-659 -158 0
-659 -159 0
-659 -145 0
-659 -160 0
-659 -161 0
-659 -162 0
-659 -163 0
-659 -164 0
-659 -165 0
-659 -166 0
-659 -88 0
-659 -110 0
-660 -202 0
-660 -87 0
-660 -112 0
-660 -154 0
-660 -155 0
-660 -156 0
-660 -120 0
-660 -158 0
-660 -159 0
-660 -145 0
-660 -160 0
-660 -161 0
-660 -162 0
-660 -163 0
-660 -164 0
-660 -165 0
-660 -166 0
-660 -88 0
-660 -113 0
-661 -232 0
-661 -42 0
-661 -95 0
-661 -154 0
-661 -155 0
-661 -156 0
-661 -120 0
-661 -158 0
-661 -159 0
-661 -145 0
-661 -160 0
-661 -161 0
-661 -162 0
-661 -163 0
-661 -164 0
-661 -165 0
-661 -195 0
-661 -59 0
-661 -110 0
-662 -232 0
-662 -42 0
-662 -112 0
-662 -154 0
-662 -155 0
-662 -156 0
-662 -120 0
-662 -158 0
-662 -159 0
-662 -145 0
-662 -160 0
-662 -161 0
-662 -162 0
-662 -163 0
-662 -164 0
-662 -165 0
-662 -195 0
-662 -59 0
-662 -113 0
-663 -232 0
-663 -87 0
-663 -95 0
-663 -154 0
-663 -155 0
-663 -156 0
-663 -120 0
-663 -158 0
-663 -159 0
-663 -145 0
-663 -160 0
-663 -161 0
-663 -162 0
-663 -163 0
-663 -164 0
-663 -165 0
-663 -195 0
-663 -88 0
-663 -110 0
-664 -232 0
-664 -87 0
-664 -112 0
-664 -154 0
-664 -155 0
-664 -156 0
-664 -120 0
-664 -158 0
-664 -159 0
-664 -145 0
-664 -160 0
-664 -161 0
-664 -162 0
-664 -163 0
-664 -164 0
-664 -165 0
-664 -195 0
-664 -88 0
-664 -113 0
-665 -202 0
-665 -42 0
-665 -95 0
-665 -154 0
-665 -155 0
-665 -156 0
-665 -157 0
-665 -120 0
-665 -158 0
-665 -159 0
-665 -145 0
-665 -160 0
-665 -161 0
-665 -163 0
-665 -164 0
-665 -165 0
-665 -166 0
-665 -59 0
-665 -110 0
-666 -202 0
-666 -42 0
-666 -112 0
-666 -154 0
-666 -155 0
-666 -156 0
-666 -157 0
-666 -120 0
-666 -158 0
-666 -159 0
-666 -145 0
-666 -160 0
-666 -161 0
-666 -163 0
-666 -164 0
-666 -165 0
-666 -166 0
-666 -59 0
-666 -113 0
-667 -202 0
-667 -87 0
-667 -95 0
-667 -154 0
-667 -155 0
-667 -156 0
-667 -157 0
-667 -120 0
-667 -158 0
-667 -159 0
-667 -145 0
-667 -160 0
-667 -161 0
-667 -163 0
-667 -164 0
-667 -165 0
-667 -166 0
-667 -88 0
-667 -110 0
-668 -202 0
-668 -87 0
-668 -112 0
-668 -154 0
-668 -155 0
-668 -156 0
-668 -157 0
-668 -120 0
-668 -158 0
-668 -159 0
-668 -145 0
-668 -160 0
-668 -161 0
-668 -163 0
-668 -164 0
-668 -165 0
-668 -166 0
-668 -88 0
-668 -113 0
-669 -232 0
-669 -42 0
-669 -95 0
-669 -154 0
-669 -155 0
-669 -156 0
-669 -157 0
-669 -120 0
-669 -158 0
-669 -159 0
-669 -145 0
-669 -160 0
-669 -161 0
-669 -163 0
-669 -164 0
-669 -165 0
-669 -195 0
-669 -59 0
-669 -110 0
-670 -232 0
-670 -42 0
-670 -112 0
-670 -154 0
-670 -155 0
-670 -156 0
-670 -157 0
-670 -120 0
-670 -158 0
-670 -159 0
-670 -145 0
-670 -160 0
-670 -161 0
-670 -163 0
-670 -164 0
-670 -165 0
-670 -195 0
-670 -59 0
-670 -113 0
-671 -232 0
-671 -87 0
-671 -95 0
-671 -154 0
-671 -155 0
-671 -156 0
-671 -157 0
-671 -120 0
-671 -158 0
-671 -159 0
-671 -145 0
-671 -160 0
-671 -161 0
-671 -163 0
-671 -164 0
-671 -165 0
-671 -195 0
-671 -88 0
-671 -110 0
-672 -232 0
-672 -87 0
-672 -112 0
-672 -154 0
-672 -155 0
-672 -156 0
-672 -157 0
-672 -120 0
-672 -158 0
-672 -159 0
-672 -145 0
-672 -160 0
-672 -161 0
-672 -163 0
-672 -164 0
-672 -165 0
-672 -195 0
-672 -88 0
-672 -113 0
-673 -239 0
-673 -42 0
-673 -43 0
-673 -44 0
-673 -45 0
-673 -46 0
-673 -47 0
-673 -48 0
-673 -49 0
-673 -50 0
-673 -51 0
-673 -52 0
-673 -53 0
-673 -55 0
-673 -56 0
-673 -57 0
-673 -58 0
-673 -59 0
-673 -60 0
-674 -239 0
-674 -42 0
-674 -62 0
-674 -44 0
-674 -45 0
-674 -46 0
-674 -47 0
-674 -48 0
-674 -49 0
-674 -50 0
-674 -51 0
-674 -52 0
-674 -53 0
-674 -55 0
-674 -56 0
-674 -57 0
-674 -58 0
-674 -59 0
-674 -63 0
-675 -239 0
-675 -87 0
-675 -43 0
-675 -44 0
-675 -45 0
-675 -46 0
-675 -47 0
-675 -48 0
-675 -49 0
-675 -50 0
-675 -51 0
-675 -52 0
-675 -53 0
-675 -55 0
-675 -56 0
-675 -57 0
-675 -58 0
-675 -88 0
-675 -60 0
-676 -239 0
-676 -87 0
-676 -62 0
-676 -44 0
-676 -45 0
-676 -46 0
-676 -47 0
-676 -48 0
-676 -49 0
-676 -50 0
-676 -51 0
-676 -52 0
-676 -53 0
-676 -55 0
-676 -56 0
-676 -57 0
-676 -58 0
-676 -88 0
-676 -63 0
-677 -244 0
-677 -42 0
-677 -43 0
-677 -44 0
-677 -45 0
-677 -46 0
-677 -47 0
-677 -48 0
-677 -49 0
-677 -50 0
-677 -51 0
-677 -52 0
-677 -53 0
-677 -55 0
-677 -56 0
-677 -57 0
-677 -173 0
-677 -59 0
-677 -60 0
-678 -244 0
-678 -42 0
-678 -62 0
-678 -44 0
-678 -45 0
-678 -46 0
-678 -47 0
-678 -48 0
-678 -49 0
-678 -50 0
-678 -51 0
-678 -52 0
-678 -53 0
-678 -55 0
-678 -56 0
-678 -57 0
-678 -173 0
-678 -59 0
-678 -63 0
-679 -244 0
-679 -87 0
-679 -43 0
-679 -44 0
-679 -45 0
-679 -46 0
-679 -47 0
-679 -48 0
-679 -49 0
-679 -50 0
-679 -51 0
-679 -52 0
-679 -53 0
-679 -55 0
-679 -56 0
-679 -57 0
-679 -173 0
-679 -88 0
-679 -60 0
-680 -244 0
-680 -87 0
-680 -62 0
-680 -44 0
-680 -45 0
-680 -46 0
-680 -47 0
-680 -48 0
-680 -49 0
-680 -50 0
-680 -51 0
-680 -52 0
-680 -53 0
-680 -55 0
-680 -56 0
-680 -57 0
-680 -173 0
-680 -88 0
-680 -63 0
-681 -239 0
-681 -42 0
-681 -43 0
-681 -44 0
-681 -45 0
-681 -46 0
-681 -47 0
-681 -49 0
-681 -50 0
-681 -51 0
-681 -52 0
-681 -53 0
-681 -54 0
-681 -55 0
-681 -56 0
-681 -57 0
-681 -58 0
-681 -59 0
-681 -60 0
-682 -239 0
-682 -42 0
-682 -62 0
-682 -44 0
-682 -45 0
-682 -46 0
-682 -47 0
-682 -49 0
-682 -50 0
-682 -51 0
-682 -52 0
-682 -53 0
-682 -54 0
-682 -55 0
-682 -56 0
-682 -57 0
-682 -58 0
-682 -59 0
-682 -63 0
-683 -239 0
-683 -87 0
-683 -43 0
-683 -44 0
-683 -45 0
-683 -46 0
-683 -47 0
-683 -49 0
-683 -50 0
-683 -51 0
-683 -52 0
-683 -53 0
-683 -54 0
-683 -55 0
-683 -56 0
-683 -57 0
-683 -58 0
-683 -88 0
-683 -60 0
-684 -239 0
-684 -87 0
-684 -62 0
-684 -44 0
-684 -45 0
-684 -46 0
-684 -47 0
-684 -49 0
-684 -50 0
-684 -51 0
-684 -52 0
-684 -53 0
-684 -54 0
-684 -55 0
-684 -56 0
-684 -57 0
-684 -58 0
-684 -88 0
-684 -63 0
-685 -244 0
-685 -42 0
-685 -43 0
-685 -44 0
-685 -45 0
-685 -46 0
-685 -47 0
-685 -49 0
-685 -50 0
-685 -51 0
-685 -52 0
-685 -53 0
-685 -54 0
-685 -55 0
-685 -56 0
-685 -57 0
-685 -173 0
-685 -59 0
-685 -60 0
-686 -244 0
-686 -42 0
-686 -62 0
-686 -44 0
-686 -45 0
-686 -46 0
-686 -47 0
-686 -49 0
-686 -50 0
-686 -51 0
-686 -52 0
-686 -53 0
-686 -54 0
-686 -55 0
-686 -56 0
-686 -57 0
-686 -173 0
-686 -59 0
-686 -63 0
-687 -244 0
-687 -87 0
-687 -43 0
-687 -44 0
-687 -45 0
-687 -46 0
-687 -47 0
-687 -49 0
-687 -50 0
-687 -51 0
-687 -52 0
-687 -53 0
-687 -54 0
-687 -55 0
-687 -56 0
-687 -57 0
-687 -173 0
-687 -88 0
-687 -60 0
-688 -244 0
-688 -87 0
-688 -62 0
-688 -44 0
-688 -45 0
-688 -46 0
-688 -47 0
-688 -49 0
-688 -50 0
-688 -51 0
-688 -52 0
-688 -53 0
-688 -54 0
-688 -55 0
-688 -56 0
-688 -57 0
-688 -173 0
-688 -88 0
-688 -63 0
-689 -202 0
-689 -42 0
-689 -95 0
-689 -154 0
-689 -155 0
-689 -156 0
-689 -157 0
-689 -158 0
-689 -159 0
-689 -145 0
-689 -160 0
-689 -161 0
-689 -162 0
-689 -163 0
-689 -164 0
-689 -165 0
-689 -166 0
-689 -59 0
-689 -110 0
-690 -202 0
-690 -42 0
-690 -112 0
-690 -154 0
-690 -155 0
-690 -156 0
-690 -157 0
-690 -158 0
-690 -159 0
-690 -145 0
-690 -160 0
-690 -161 0
-690 -162 0
-690 -163 0
-690 -164 0
-690 -165 0
-690 -166 0
-690 -59 0
-690 -113 0
-691 -202 0
-691 -87 0
-691 -95 0
-691 -154 0
-691 -155 0
-691 -156 0
-691 -157 0
-691 -158 0
-691 -159 0
-691 -145 0
-691 -160 0
-691 -161 0
-691 -162 0
-691 -163 0
-691 -164 0
-691 -165 0
-691 -166 0
-691 -88 0
-691 -110 0
-692 -202 0
-692 -87 0
-692 -112 0
-692 -154 0
-692 -155 0
-692 -156 0
-692 -157 0
-692 -158 0
-692 -159 0
-692 -145 0
-692 -160 0
-692 -161 0
-692 -162 0
-692 -163 0
-692 -164 0
-692 -165 0
-692 -166 0
-692 -88 0
-692 -113 0
-693 -232 0
-693 -42 0
-693 -95 0
-693 -154 0
-693 -155 0
-693 -156 0
-693 -157 0
-693 -158 0
-693 -159 0
-693 -145 0
-693 -160 0
-693 -161 0
-693 -162 0
-693 -163 0
-693 -164 0
-693 -165 0
-693 -195 0
-693 -59 0
-693 -110 0
-694 -232 0
-694 -42 0
-694 -112 0
-694 -154 0
-694 -155 0
-694 -156 0
-694 -157 0
-694 -158 0
-694 -159 0
-694 -145 0
-694 -160 0
-694 -161 0
-694 -162 0
-694 -163 0
-694 -164 0
-694 -165 0
-694 -195 0
-694 -59 0
-694 -113 0
-695 -232 0
-695 -87 0
-695 -95 0
-695 -154 0
-695 -155 0
-695 -156 0
-695 -157 0
-695 -158 0
-695 -159 0
-695 -145 0
-695 -160 0
-695 -161 0
-695 -162 0
-695 -163 0
-695 -164 0
-695 -165 0
-695 -195 0
-695 -88 0
-695 -110 0
-696 -232 0
-696 -87 0
-696 -112 0
-696 -154 0
-696 -155 0
-696 -156 0
-696 -157 0
-696 -158 0
-696 -159 0
-696 -145 0
-696 -160 0
-696 -161 0
-696 -162 0
-696 -163 0
-696 -164 0
-696 -165 0
-696 -195 0
-696 -88 0
-696 -113 0
-697 -202 0
-697 -42 0
-697 -95 0
-697 -154 0
-697 -155 0
-697 -156 0
-697 -157 0
-697 -120 0
-697 -158 0
-697 -159 0
-697 -145 0
-697 -160 0
-697 -162 0
-697 -163 0
-697 -164 0
-697 -165 0
-697 -166 0
-697 -59 0
-697 -110 0
-698 -202 0
-698 -42 0
-698 -112 0
-698 -154 0
-698 -155 0
-698 -156 0
-698 -157 0
-698 -120 0
-698 -158 0
-698 -159 0
-698 -145 0
-698 -160 0
-698 -162 0
-698 -163 0
-698 -164 0
-698 -165 0
-698 -166 0
-698 -59 0
-698 -113 0
-699 -202 0
-699 -87 0
-699 -95 0
-699 -154 0
-699 -155 0
-699 -156 0
-699 -157 0
-699 -120 0
-699 -158 0
-699 -159 0
-699 -145 0
-699 -160 0
-699 -162 0
-699 -163 0
-699 -164 0
-699 -165 0
-699 -166 0
-699 -88 0
-699 -110 0
-700 -202 0
-700 -87 0
-700 -112 0
-700 -154 0
-700 -155 0
-700 -156 0
-700 -157 0
-700 -120 0
-700 -158 0
-700 -159 0
-700 -145 0
-700 -160 0
-700 -162 0
-700 -163 0
-700 -164 0
-700 -165 0
-700 -166 0
-700 -88 0
-700 -113 0
-701 -232 0
-701 -42 0
-701 -95 0
-701 -154 0
-701 -155 0
-701 -156 0
-701 -157 0
-701 -120 0
-701 -158 0
-701 -159 0
-701 -145 0
-701 -160 0
-701 -162 0
-701 -163 0
-701 -164 0
-701 -165 0
-701 -195 0
-701 -59 0
-701 -110 0
-702 -232 0
-702 -42 0
-702 -112 0
-702 -154 0
-702 -155 0
-702 -156 0
-702 -157 0
-702 -120 0
-702 -158 0
-702 -159 0
-702 -145 0
-702 -160 0
-702 -162 0
-702 -163 0
-702 -164 0
-702 -165 0
-702 -195 0
-702 -59 0
-702 -113 0
-703 -232 0
-703 -87 0
-703 -95 0
-703 -154 0
-703 -155 0
-703 -156 0
-703 -157 0
-703 -120 0
-703 -158 0
-703 -159 0
-703 -145 0
-703 -160 0
-703 -162 0
-703 -163 0
-703 -164 0
-703 -165 0
-703 -195 0
-703 -88 0
-703 -110 0
-704 -232 0
-704 -87 0
-704 -112 0
-704 -154 0
-704 -155 0
-704 -156 0
-704 -157 0
-704 -120 0
-704 -158 0
-704 -159 0
-704 -145 0
-704 -160 0
-704 -162 0
-704 -163 0
-704 -164 0
-704 -165 0
-704 -195 0
-704 -88 0
-704 -113 0
-705 -239 0
-705 -42 0
-705 -43 0
-705 -44 0
-705 -45 0
-705 -46 0
-705 -47 0
-705 -48 0
-705 -49 0
-705 -50 0
-705 -51 0
-705 -52 0
-705 -54 0
-705 -55 0
-705 -56 0
-705 -57 0
-705 -58 0
-705 -59 0
-705 -60 0
-706 -239 0
-706 -42 0
-706 -62 0
-706 -44 0
-706 -45 0
-706 -46 0
-706 -47 0
-706 -48 0
-706 -49 0
-706 -50 0
-706 -51 0
-706 -52 0
-706 -54 0
-706 -55 0
-706 -56 0
-706 -57 0
-706 -58 0
-706 -59 0
-706 -63 0
-707 -239 0
-707 -87 0
-707 -43 0
-707 -44 0
-707 -45 0
-707 -46 0
-707 -47 0
-707 -48 0
-707 -49 0
-707 -50 0
-707 -51 0
-707 -52 0
-707 -54 0
-707 -55 0
-707 -56 0
-707 -57 0
-707 -58 0
-707 -88 0
-707 -60 0
-708 -239 0
-708 -87 0
-708 -62 0
-708 -44 0
-708 -45 0
-708 -46 0
-708 -47 0
-708 -48 0
-708 -49 0
-708 -50 0
-708 -51 0
-708 -52 0
-708 -54 0
-708 -55 0
-708 -56 0
-708 -57 0
-708 -58 0
-708 -88 0
-708 -63 0
-709 -244 0
-709 -42 0
-709 -43 0
-709 -44 0
-709 -45 0
-709 -46 0
-709 -47 0
-709 -48 0
-709 -49 0
-709 -50 0
-709 -51 0
-709 -52 0
-709 -54 0
-709 -55 0
-709 -56 0
-709 -57 0
-709 -173 0
-709 -59 0
-709 -60 0
-710 -244 0
-710 -42 0
-710 -62 0
-710 -44 0
-710 -45 0
-710 -46 0
-710 -47 0
-710 -48 0
-710 -49 0
-710 -50 0
-710 -51 0
-710 -52 0
-710 -54 0
-710 -55 0
-710 -56 0
-710 -57 0
-710 -173 0
-710 -59 0
-710 -63 0
-711 -244 0
-711 -87 0
-711 -43 0
-711 -44 0
-711 -45 0
-711 -46 0
-711 -47 0
-711 -48 0
-711 -49 0
-711 -50 0
-711 -51 0
-711 -52 0
-711 -54 0
-711 -55 0
-711 -56 0
-711 -57 0
-711 -173 0
-711 -88 0
-711 -60 0
-712 -244 0
-712 -87 0
-712 -62 0
-712 -44 0
-712 -45 0
-712 -46 0
-712 -47 0
-712 -48 0
-712 -49 0
-712 -50 0
-712 -51 0
-712 -52 0
-712 -54 0
-712 -55 0
-712 -56 0
-712 -57 0
-712 -173 0
-712 -88 0
-712 -63 0
-713 -239 0
-713 -42 0
-713 -43 0
-713 -44 0
-713 -45 0
-713 -46 0
-713 -47 0
-713 -48 0
-713 -50 0
-713 -51 0
-713 -52 0
-713 -53 0
-713 -54 0
-713 -55 0
-713 -56 0
-713 -57 0
-713 -58 0
-713 -59 0
-713 -60 0
-714 -239 0
-714 -42 0
-714 -62 0
-714 -44 0
-714 -45 0
-714 -46 0
-714 -47 0
-714 -48 0
-714 -50 0
-714 -51 0
-714 -52 0
-714 -53 0
-714 -54 0
-714 -55 0
-714 -56 0
-714 -57 0
-714 -58 0
-714 -59 0
-714 -63 0
-715 -239 0
-715 -87 0
-715 -43 0
-715 -44 0
-715 -45 0
-715 -46 0
-715 -47 0
-715 -48 0
-715 -50 0
-715 -51 0
-715 -52 0
-715 -53 0
-715 -54 0
-715 -55 0
-715 -56 0
-715 -57 0
-715 -58 0
-715 -88 0
-715 -60 0
-716 -239 0
-716 -87 0
-716 -62 0
-716 -44 0
-716 -45 0
-716 -46 0
-716 -47 0
-716 -48 0
-716 -50 0
-716 -51 0
-716 -52 0
-716 -53 0
-716 -54 0
-716 -55 0
-716 -56 0
-716 -57 0
-716 -58 0
-716 -88 0
-716 -63 0
-717 -244 0
-717 -42 0
-717 -43 0
-717 -44 0
-717 -45 0
-717 -46 0
-717 -47 0
-717 -48 0
-717 -50 0
-717 -51 0
-717 -52 0
-717 -53 0
-717 -54 0
-717 -55 0
-717 -56 0
-717 -57 0
-717 -173 0
-717 -59 0
-717 -60 0
-718 -244 0
-718 -42 0
-718 -62 0
-718 -44 0
-718 -45 0
-718 -46 0
-718 -47 0
-718 -48 0
-718 -50 0
-718 -51 0
-718 -52 0
-718 -53 0
-718 -54 0
-718 -55 0
-718 -56 0
-718 -57 0
-718 -173 0
-718 -59 0
-718 -63 0
-719 -244 0
-719 -87 0
-719 -43 0
-719 -44 0
-719 -45 0
-719 -46 0
-719 -47 0
-719 -48 0
-719 -50 0
-719 -51 0
-719 -52 0
-719 -53 0
-719 -54 0
-719 -55 0
-719 -56 0
-719 -57 0
-719 -173 0
-719 -88 0
-719 -60 0
-720 -244 0
-720 -87 0
-720 -62 0
-720 -44 0
-720 -45 0
-720 -46 0
-720 -47 0
-720 -48 0
-720 -50 0
-720 -51 0
-720 -52 0
-720 -53 0
-720 -54 0
-720 -55 0
-720 -56 0
-720 -57 0
-720 -173 0
-720 -88 0
-720 -63 0
-721 -202 0
-721 -42 0
-721 -95 0
-721 -154 0
-721 -155 0
-721 -156 0
-721 -157 0
-721 -120 0
-721 -159 0
-721 -145 0
-721 -160 0
-721 -161 0
-721 -162 0
-721 -163 0
-721 -164 0
-721 -165 0
-721 -166 0
-721 -59 0
-721 -110 0
-722 -202 0
-722 -42 0
-722 -112 0
-722 -154 0
-722 -155 0
-722 -156 0
-722 -157 0
-722 -120 0
-722 -159 0
-722 -145 0
-722 -160 0
-722 -161 0
-722 -162 0
-722 -163 0
-722 -164 0
-722 -165 0
-722 -166 0
-722 -59 0
-722 -113 0
-723 -202 0
-723 -87 0
-723 -95 0
-723 -154 0
-723 -155 0
-723 -156 0
-723 -157 0
-723 -120 0
-723 -159 0
-723 -145 0
-723 -160 0
-723 -161 0
-723 -162 0
-723 -163 0
-723 -164 0
-723 -165 0
-723 -166 0
-723 -88 0
-723 -110 0
-724 -202 0
-724 -87 0
-724 -112 0
-724 -154 0
-724 -155 0
-724 -156 0
-724 -157 0
-724 -120 0
-724 -159 0
-724 -145 0
-724 -160 0
-724 -161 0
-724 -162 0
-724 -163 0
-724 -164 0
-724 -165 0
-724 -166 0
-724 -88 0
-724 -113 0
-725 -232 0
-725 -42 0
-725 -95 0
-725 -154 0
-725 -155 0
-725 -156 0
-725 -157 0
-725 -120 0
-725 -159 0
-725 -145 0
-725 -160 0
-725 -161 0
-725 -162 0
-725 -163 0
-725 -164 0
-725 -165 0
-725 -195 0
-725 -59 0
-725 -110 0
-726 -232 0
-726 -42 0
-726 -112 0
-726 -154 0
-726 -155 0
-726 -156 0
-726 -157 0
-726 -120 0
-726 -159 0
-726 -145 0
-726 -160 0
-726 -161 0
-726 -162 0
-726 -163 0
-726 -164 0
-726 -165 0
-726 -195 0
-726 -59 0
-726 -113 0
-727 -232 0
-727 -87 0
-727 -95 0
-727 -154 0
-727 -155 0
-727 -156 0
-727 -157 0
-727 -120 0
-727 -159 0
-727 -145 0
-727 -160 0
-727 -161 0
-727 -162 0
-727 -163 0
-727 -164 0
-727 -165 0
-727 -195 0
-727 -88 0
-727 -110 0
-728 -232 0
-728 -87 0
-728 -112 0
-728 -154 0
-728 -155 0
-728 -156 0
-728 -157 0
-728 -120 0
-728 -159 0
-728 -145 0
-728 -160 0
-728 -161 0
-728 -162 0
-728 -163 0
-728 -164 0
-728 -165 0
-728 -195 0
-728 -88 0
-728 -113 0
-729 -202 0
-729 -42 0
-729 -95 0
-729 -154 0
-729 -155 0
-729 -156 0
-729 -157 0
-729 -120 0
-729 -158 0
-729 -159 0
-729 -145 0
-729 -161 0
-729 -162 0
-729 -163 0
-729 -164 0
-729 -165 0
-729 -166 0
-729 -59 0
-729 -110 0
-730 -202 0
-730 -42 0
-730 -112 0
-730 -154 0
-730 -155 0
-730 -156 0
-730 -157 0
-730 -120 0
-730 -158 0
-730 -159 0
-730 -145 0
-730 -161 0
-730 -162 0
-730 -163 0
-730 -164 0
-730 -165 0
-730 -166 0
-730 -59 0
-730 -113 0
-731 -202 0
-731 -87 0
-731 -95 0
-731 -154 0
-731 -155 0
-731 -156 0
-731 -157 0
-731 -120 0
-731 -158 0
-731 -159 0
-731 -145 0
-731 -161 0
-731 -162 0
-731 -163 0
-731 -164 0
-731 -165 0
-731 -166 0
-731 -88 0
-731 -110 0
-732 -202 0
-732 -87 0
-732 -112 0
-732 -154 0
-732 -155 0
-732 -156 0
-732 -157 0
-732 -120 0
-732 -158 0
-732 -159 0
-732 -145 0
-732 -161 0
-732 -162 0
-732 -163 0
-732 -164 0
-732 -165 0
-732 -166 0
-732 -88 0
-732 -113 0
-733 -232 0
-733 -42 0
-733 -95 0
-733 -154 0
-733 -155 0
-733 -156 0
-733 -157 0
-733 -120 0
-733 -158 0
-733 -159 0
-733 -145 0
-733 -161 0
-733 -162 0
-733 -163 0
-733 -164 0
-733 -165 0
-733 -195 0
-733 -59 0
-733 -110 0
-734 -232 0
-734 -42 0
-734 -112 0
-734 -154 0
-734 -155 0
-734 -156 0
-734 -157 0
-734 -120 0
-734 -158 0
-734 -159 0
-734 -145 0
-734 -161 0
-734 -162 0
-734 -163 0
-734 -164 0
-734 -165 0
-734 -195 0
-734 -59 0
-734 -113 0
-735 -232 0
-735 -87 0
-735 -95 0
-735 -154 0
-735 -155 0
-735 -156 0
-735 -157 0
-735 -120 0
-735 -158 0
-735 -159 0
-735 -145 0
-735 -161 0
-735 -162 0
-735 -163 0
-735 -164 0
-735 -165 0
-735 -195 0
-735 -88 0
-735 -110 0
-736 -232 0
-736 -87 0
-736 -112 0
-736 -154 0
-736 -155 0
-736 -156 0
-736 -157 0
-736 -120 0
-736 -158 0
-736 -159 0
-736 -145 0
-736 -161 0
-736 -162 0
-736 -163 0
-736 -164 0
-736 -165 0
-736 -195 0
-736 -88 0
-736 -113 0
-737 -239 0
-737 -42 0
-737 -43 0
-737 -44 0
-737 -45 0
-737 -46 0
-737 -47 0
-737 -48 0
-737 -49 0
-737 -50 0
-737 -51 0
-737 -53 0
-737 -54 0
-737 -55 0
-737 -56 0
-737 -57 0
-737 -58 0
-737 -59 0
-737 -60 0
-738 -239 0
-738 -42 0
-738 -62 0
-738 -44 0
-738 -45 0
-738 -46 0
-738 -47 0
-738 -48 0
-738 -49 0
-738 -50 0
-738 -51 0
-738 -53 0
-738 -54 0
-738 -55 0
-738 -56 0
-738 -57 0
-738 -58 0
-738 -59 0
-738 -63 0
-739 -239 0
-739 -87 0
-739 -43 0
-739 -44 0
-739 -45 0
-739 -46 0
-739 -47 0
-739 -48 0
-739 -49 0
-739 -50 0
-739 -51 0
-739 -53 0
-739 -54 0
-739 -55 0
-739 -56 0
-739 -57 0
-739 -58 0
-739 -88 0
-739 -60 0
-740 -239 0
-740 -87 0
-740 -62 0
-740 -44 0
-740 -45 0
-740 -46 0
-740 -47 0
-740 -48 0
-740 -49 0
-740 -50 0
-740 -51 0
-740 -53 0
-740 -54 0
-740 -55 0
-740 -56 0
-740 -57 0
-740 -58 0
-740 -88 0
-740 -63 0
-741 -244 0
-741 -42 0
-741 -43 0
-741 -44 0
-741 -45 0
-741 -46 0
-741 -47 0
-741 -48 0
-741 -49 0
-741 -50 0
-741 -51 0
-741 -53 0
-741 -54 0
-741 -55 0
-741 -56 0
-741 -57 0
-741 -173 0
-741 -59 0
-741 -60 0
-742 -244 0
-742 -42 0
-742 -62 0
-742 -44 0
-742 -45 0
-742 -46 0
-742 -47 0
-742 -48 0
-742 -49 0
-742 -50 0
-742 -51 0
-742 -53 0
-742 -54 0
-742 -55 0
-742 -56 0
-742 -57 0
-742 -173 0
-742 -59 0
-742 -63 0
-743 -244 0
-743 -87 0
-743 -43 0
-743 -44 0
-743 -45 0
-743 -46 0
-743 -47 0
-743 -48 0
-743 -49 0
-743 -50 0
-743 -51 0
-743 -53 0
-743 -54 0
-743 -55 0
-743 -56 0
-743 -57 0
-743 -173 0
-743 -88 0
-743 -60 0
-744 -244 0
-744 -87 0
-744 -62 0
-744 -44 0
-744 -45 0
-744 -46 0
-744 -47 0
-744 -48 0
-744 -49 0
-744 -50 0
-744 -51 0
-744 -53 0
-744 -54 0
-744 -55 0
-744 -56 0
-744 -57 0
-744 -173 0
-744 -88 0
-744 -63 0
-745 -239 0
-745 -42 0
-745 -43 0
-745 -44 0
-745 -45 0
-745 -46 0
-745 -47 0
-745 -48 0
-745 -49 0
-745 -51 0
-745 -52 0
-745 -53 0
-745 -54 0
-745 -55 0
-745 -56 0
-745 -57 0
-745 -58 0
-745 -59 0
-745 -60 0
-746 -239 0
-746 -42 0
-746 -62 0
-746 -44 0
-746 -45 0
-746 -46 0
-746 -47 0
-746 -48 0
-746 -49 0
-746 -51 0
-746 -52 0
-746 -53 0
-746 -54 0
-746 -55 0
-746 -56 0
-746 -57 0
-746 -58 0
-746 -59 0
-746 -63 0
-747 -239 0
-747 -87 0
-747 -43 0
-747 -44 0
-747 -45 0
-747 -46 0
-747 -47 0
-747 -48 0
-747 -49 0
-747 -51 0
-747 -52 0
-747 -53 0
-747 -54 0
-747 -55 0
-747 -56 0
-747 -57 0
-747 -58 0
-747 -88 0
-747 -60 0
-748 -239 0
-748 -87 0
-748 -62 0
-748 -44 0
-748 -45 0
-748 -46 0
-748 -47 0
-748 -48 0
-748 -49 0
-748 -51 0
-748 -52 0
-748 -53 0
-748 -54 0
-748 -55 0
-748 -56 0
-748 -57 0
-748 -58 0
-748 -88 0
-748 -63 0
-749 -244 0
-749 -42 0
-749 -43 0
-749 -44 0
-749 -45 0
-749 -46 0
-749 -47 0
-749 -48 0
-749 -49 0
-749 -51 0
-749 -52 0
-749 -53 0
-749 -54 0
-749 -55 0
-749 -56 0
-749 -57 0
-749 -173 0
-749 -59 0
-749 -60 0
-750 -244 0
-750 -42 0
-750 -62 0
-750 -44 0
-750 -45 0
-750 -46 0
-750 -47 0
-750 -48 0
-750 -49 0
-750 -51 0
-750 -52 0
-750 -53 0
-750 -54 0
-750 -55 0
-750 -56 0
-750 -57 0
-750 -173 0
-750 -59 0
-750 -63 0
-751 -244 0
-751 -87 0
-751 -43 0
-751 -44 0
-751 -45 0
-751 -46 0
-751 -47 0
-751 -48 0
-751 -49 0
-751 -51 0
-751 -52 0
-751 -53 0
-751 -54 0
-751 -55 0
-751 -56 0
-751 -57 0
-751 -173 0
-751 -88 0
-751 -60 0
-752 -244 0
-752 -87 0
-752 -62 0
-752 -44 0
-752 -45 0
-752 -46 0
-752 -47 0
-752 -48 0
-752 -49 0
-752 -51 0
-752 -52 0
-752 -53 0
-752 -54 0
-752 -55 0
-752 -56 0
-752 -57 0
-752 -173 0
-752 -88 0
-752 -63 0
-753 -202 0
-753 -42 0
-753 -95 0
-753 -154 0
-753 -155 0
-753 -156 0
-753 -157 0
-753 -120 0
-753 -158 0
-753 -145 0
-753 -160 0
-753 -161 0
-753 -162 0
-753 -163 0
-753 -164 0
-753 -165 0
-753 -166 0
-753 -59 0
-753 -110 0
-754 -202 0
-754 -42 0
-754 -112 0
-754 -154 0
-754 -155 0
-754 -156 0
-754 -157 0
-754 -120 0
-754 -158 0
-754 -145 0
-754 -160 0
-754 -161 0
-754 -162 0
-754 -163 0
-754 -164 0
-754 -165 0
-754 -166 0
-754 -59 0
-754 -113 0
-755 -202 0
-755 -87 0
-755 -95 0
-755 -154 0
-755 -155 0
-755 -156 0
-755 -157 0
-755 -120 0
-755 -158 0
-755 -145 0
-755 -160 0
-755 -161 0
-755 -162 0
-755 -163 0
-755 -164 0
-755 -165 0
-755 -166 0
-755 -88 0
-755 -110 0
-756 -202 0
-756 -87 0
-756 -112 0
-756 -154 0
-756 -155 0
-756 -156 0
-756 -157 0
-756 -120 0
-756 -158 0
-756 -145 0
-756 -160 0
-756 -161 0
-756 -162 0
-756 -163 0
-756 -164 0
-756 -165 0
-756 -166 0
-756 -88 0
-756 -113 0
-757 -232 0
-757 -42 0
-757 -95 0
-757 -154 0
-757 -155 0
-757 -156 0
-757 -157 0
-757 -120 0
-757 -158 0
-757 -145 0
-757 -160 0
-757 -161 0
-757 -162 0
-757 -163 0
-757 -164 0
-757 -165 0
-757 -195 0
-757 -59 0
-757 -110 0
-758 -232 0
-758 -42 0
-758 -112 0
-758 -154 0
-758 -155 0
-758 -156 0
-758 -157 0
-758 -120 0
-758 -158 0
-758 -145 0
-758 -160 0
-758 -161 0
-758 -162 0
-758 -163 0
-758 -164 0
-758 -165 0
-758 -195 0
-758 -59 0
-758 -113 0
-759 -232 0
-759 -87 0
-759 -95 0
-759 -154 0
-759 -155 0
-759 -156 0
-759 -157 0
-759 -120 0
-759 -158 0
-759 -145 0
-759 -160 0
-759 -161 0
-759 -162 0
-759 -163 0
-759 -164 0
-759 -165 0
-759 -195 0
-759 -88 0
-759 -110 0
-760 -232 0
-760 -87 0
-760 -112 0
-760 -154 0
-760 -155 0
-760 -156 0
-760 -157 0
-760 -120 0
-760 -158 0
-760 -145 0
-760 -160 0
-760 -161 0
-760 -162 0
-760 -163 0
-760 -164 0
-760 -165 0
-760 -195 0
-760 -88 0
-760 -113 0
-761 -202 0
-761 -42 0
-761 -95 0
-761 -154 0
-761 -155 0
-761 -156 0
-761 -157 0
-761 -120 0
-761 -158 0
-761 -159 0
-761 -160 0
-761 -161 0
-761 -162 0
-761 -163 0
-761 -164 0
-761 -165 0
-761 -166 0
-761 -59 0
-761 -110 0
-762 -202 0
-762 -42 0
-762 -112 0
-762 -154 0
-762 -155 0
-762 -156 0
-762 -157 0
-762 -120 0
-762 -158 0
-762 -159 0
-762 -160 0
-762 -161 0
-762 -162 0
-762 -163 0
-762 -164 0
-762 -165 0
-762 -166 0
-762 -59 0
-762 -113 0
-763 -202 0
-763 -87 0
-763 -95 0
-763 -154 0
-763 -155 0
-763 -156 0
-763 -157 0
-763 -120 0
-763 -158 0
-763 -159 0
-763 -160 0
-763 -161 0
-763 -162 0
-763 -163 0
-763 -164 0
-763 -165 0
-763 -166 0
-763 -88 0
-763 -110 0
-764 -202 0
-764 -87 0
-764 -112 0
-764 -154 0
-764 -155 0
-764 -156 0
-764 -157 0
-764 -120 0
-764 -158 0
-764 -159 0
-764 -160 0
-764 -161 0
-764 -162 0
-764 -163 0
-764 -164 0
-764 -165 0
-764 -166 0
-764 -88 0
-764 -113 0
-765 -232 0
-765 -42 0
-765 -95 0
-765 -154 0
-765 -155 0
-765 -156 0
-765 -157 0
-765 -120 0
-765 -158 0
-765 -159 0
-765 -160 0
-765 -161 0
-765 -162 0
-765 -163 0
-765 -164 0
-765 -165 0
-765 -195 0
-765 -59 0
-765 -110 0
-766 -232 0
-766 -42 0
-766 -112 0
-766 -154 0
-766 -155 0
-766 -156 0
-766 -157 0
-766 -120 0
-766 -158 0
-766 -159 0
-766 -160 0
-766 -161 0
-766 -162 0
-766 -163 0
-766 -164 0
-766 -165 0
-766 -195 0
-766 -59 0
-766 -113 0
-767 -232 0
-767 -87 0
-767 -95 0
-767 -154 0
-767 -155 0
-767 -156 0
-767 -157 0
-767 -120 0
-767 -158 0
-767 -159 0
-767 -160 0
-767 -161 0
-767 -162 0
-767 -163 0
-767 -164 0
-767 -165 0
-767 -195 0
-767 -88 0
-767 -110 0
-768 -232 0
-768 -87 0
-768 -112 0
-768 -154 0
-768 -155 0
-768 -156 0
-768 -157 0
-768 -120 0
-768 -158 0
-768 -159 0
-768 -160 0
-768 -161 0
-768 -162 0
-768 -163 0
-768 -164 0
-768 -165 0
-768 -195 0
-768 -88 0
-768 -113 0
-769 -239 0
-769 -42 0
-769 -43 0
-769 -44 0
-769 -45 0
-769 -46 0
-769 -47 0
-769 -48 0
-769 -49 0
-769 -50 0
-769 -52 0
-769 -53 0
-769 -54 0
-769 -55 0
-769 -56 0
-769 -57 0
-769 -58 0
-769 -59 0
-769 -60 0
-770 -239 0
-770 -42 0
-770 -62 0
-770 -44 0
-770 -45 0
-770 -46 0
-770 -47 0
-770 -48 0
-770 -49 0
-770 -50 0
-770 -52 0
-770 -53 0
-770 -54 0
-770 -55 0
-770 -56 0
-770 -57 0
-770 -58 0
-770 -59 0
-770 -63 0
-771 -239 0
-771 -87 0
-771 -43 0
-771 -44 0
-771 -45 0
-771 -46 0
-771 -47 0
-771 -48 0
-771 -49 0
-771 -50 0
-771 -52 0
-771 -53 0
-771 -54 0
-771 -55 0
-771 -56 0
-771 -57 0
-771 -58 0
-771 -88 0
-771 -60 0
-772 -239 0
-772 -87 0
-772 -62 0
-772 -44 0
-772 -45 0
-772 -46 0
-772 -47 0
-772 -48 0
-772 -49 0
-772 -50 0
-772 -52 0
-772 -53 0
-772 -54 0
-772 -55 0
-772 -56 0
-772 -57 0
-772 -58 0
-772 -88 0
-772 -63 0
-773 -244 0
-773 -42 0
-773 -43 0
-773 -44 0
-773 -45 0
-773 -46 0
-773 -47 0
-773 -48 0
-773 -49 0
-773 -50 0
-773 -52 0
-773 -53 0
-773 -54 0
-773 -55 0
-773 -56 0
-773 -57 0
-773 -173 0
-773 -59 0
-773 -60 0
-774 -244 0
-774 -42 0
-774 -62 0
-774 -44 0
-774 -45 0
-774 -46 0
-774 -47 0
-774 -48 0
-774 -49 0
-774 -50 0
-774 -52 0
-774 -53 0
-774 -54 0
-774 -55 0
-774 -56 0
-774 -57 0
-774 -173 0
-774 -59 0
-774 -63 0
-775 -244 0
-775 -87 0
-775 -43 0
-775 -44 0
-775 -45 0
-775 -46 0
-775 -47 0
-775 -48 0
-775 -49 0
-775 -50 0
-775 -52 0
-775 -53 0
-775 -54 0
-775 -55 0
-775 -56 0
-775 -57 0
-775 -173 0
-775 -88 0
-775 -60 0
-776 -244 0
-776 -87 0
-776 -62 0
-776 -44 0
-776 -45 0
-776 -46 0
-776 -47 0
-776 -48 0
-776 -49 0
-776 -50 0
-776 -52 0
-776 -53 0
-776 -54 0
-776 -55 0
-776 -56 0
-776 -57 0
-776 -173 0
-776 -88 0
-776 -63 0
41 61 64 83 86 89 90 93 94 111 114 130 131 132 133 136 137 152 153 167 168 169 170 171 172 174 175 177 178 179 180 181 182 184 185 186 187 188 189 190 191 193 194 196 197 198 199 200 0
-41 777 0
-61 778 0
-777 778 0
-61 -777 0
-64 779 0
-778 779 0
-64 -778 0
-83 780 0
-779 780 0
-83 -779 0
-86 781 0
-780 781 0
-86 -780 0
-89 782 0
-781 782 0
-89 -781 0
-90 783 0
-782 783 0
-90 -782 0
-93 784 0
-783 784 0
-93 -783 0
-94 785 0
-784 785 0
-94 -784 0
-111 786 0
-785 786 0
-111 -785 0
-114 787 0
-786 787 0
-114 -786 0
-130 788 0
-787 788 0
-130 -787 0
-131 789 0
-788 789 0
-131 -788 0
-132 790 0
-789 790 0
-132 -789 0
-133 791 0
-790 791 0
-133 -790 0
-136 792 0
-791 792 0
-136 -791 0
-137 793 0
-792 793 0
-137 -792 0
-152 794 0
-793 794 0
-152 -793 0
-153 795 0
-794 795 0
-153 -794 0
-167 796 0
-795 796 0
-167 -795 0
-168 797 0
-796 797 0
-168 -796 0
-169 798 0
-797 798 0
-169 -797 0
-170 799 0
-798 799 0
-170 -798 0
-171 800 0
-799 800 0
-171 -799 0
-172 801 0
-800 801 0
-172 -800 0
-174 802 0
-801 802 0
-174 -801 0
-175 803 0
-802 803 0
-175 -802 0
-177 804 0
-803 804 0
-177 -803 0
-178 805 0
-804 805 0
-178 -804 0
-179 806 0
-805 806 0
-179 -805 0
-180 807 0
-806 807 0
-180 -806 0
-181 808 0
-807 808 0
-181 -807 0
-182 809 0
-808 809 0
-182 -808 0
-184 810 0
-809 810 0
-184 -809 0
-185 811 0
-810 811 0
-185 -810 0
-186 812 0
-811 812 0
-186 -811 0
-187 813 0
-812 813 0
-187 -812 0
-188 814 0
-813 814 0
-188 -813 0
-189 815 0
-814 815 0
-189 -814 0
-190 816 0
-815 816 0
-190 -815 0
-191 817 0
-816 817 0
-191 -816 0
-193 818 0
-817 818 0
-193 -817 0
-194 819 0
-818 819 0
-194 -818 0
-196 820 0
-819 820 0
-196 -819 0
-197 821 0
-820 821 0
-197 -820 0
-198 822 0
-821 822 0
-198 -821 0
-199 823 0
-822 823 0
-199 -822 0
-200 -823 0
201 216 217 230 231 233 234 237 238 240 241 242 243 245 246 247 248 260 261 274 275 276 277 278 279 281 282 284 285 286 287 288 289 290 291 292 293 294 295 296 297 299 300 302 303 304 305 306 0
-201 824 0
-216 825 0
-824 825 0
-216 -824 0
-217 826 0
-825 826 0
-217 -825 0
-230 827 0
-826 827 0
-230 -826 0
-231 828 0
-827 828 0
-231 -827 0
-233 829 0
-828 829 0
-233 -828 0
-234 830 0
-829 830 0
-234 -829 0
-237 831 0
-830 831 0
-237 -830 0
-238 832 0
-831 832 0
-238 -831 0
-240 833 0
-832 833 0
-240 -832 0
-241 834 0
-833 834 0
-241 -833 0
-242 835 0
-834 835 0
-242 -834 0
-243 836 0
-835 836 0
-243 -835 0
-245 837 0
-836 837 0
-245 -836 0
-246 838 0
-837 838 0
-246 -837 0
-247 839 0
-838 839 0
-247 -838 0
-248 840 0
-839 840 0
-248 -839 0
-260 841 0
-840 841 0
-260 -840 0
-261 842 0
-841 842 0
-261 -841 0
-274 843 0
-842 843 0
-274 -842 0
-275 844 0
-843 844 0
-275 -843 0
-276 845 0
-844 845 0
-276 -844 0
-277 846 0
-845 846 0
-277 -845 0
-278 847 0
-846 847 0
-278 -846 0
-279 848 0
-847 848 0
-279 -847 0
-281 849 0
-848 849 0
-281 -848 0
-282 850 0
-849 850 0
-282 -849 0
-284 851 0
-850 851 0
-284 -850 0
-285 852 0
-851 852 0
-285 -851 0
-286 853 0
-852 853 0
-286 -852 0
-287 854 0
-853 854 0
-287 -853 0
-288 855 0
-854 855 0
-288 -854 0
-289 856 0
-855 856 0
-289 -855 0
-290 857 0
-856 857 0
-290 -856 0
-291 858 0
-857 858 0
-291 -857 0
-292 859 0
-858 859 0
-292 -858 0
-293 860 0
-859 860 0
-293 -859 0
-294 861 0
-860 861 0
-294 -860 0
-295 862 0
-861 862 0
-295 -861 0
-296 863 0
-862 863 0
-296 -862 0
-297 864 0
-863 864 0
-297 -863 0
-299 865 0
-864 865 0
-299 -864 0
-300 866 0
-865 866 0
-300 -865 0
-302 867 0
-866 867 0
-302 -866 0
-303 868 0
-867 868 0
-303 -867 0
-304 869 0
-868 869 0
-304 -868 0
-305 870 0
-869 870 0
-305 -869 0
-306 -870 0
307 319 320 321 322 323 324 325 326 337 338 349 350 351 352 353 354 355 356 367 368 369 370 371 372 374 375 376 377 378 379 380 381 383 384 385 386 387 388 389 390 391 392 394 395 396 397 398 0
-307 871 0
-319 872 0
-871 872 0
-319 -871 0
-320 873 0
-872 873 0
-320 -872 0
-321 874 0
-873 874 0
-321 -873 0
-322 875 0
-874 875 0
-322 -874 0
-323 876 0
-875 876 0
-323 -875 0
-324 877 0
-876 877 0
-324 -876 0
-325 878 0
-877 878 0
-325 -877 0
-326 879 0
-878 879 0
-326 -878 0
-337 880 0
-879 880 0
-337 -879 0
-338 881 0
-880 881 0
-338 -880 0
-349 882 0
-881 882 0
-349 -881 0
-350 883 0
-882 883 0
-350 -882 0
-351 884 0
-883 884 0
-351 -883 0
-352 885 0
-884 885 0
-352 -884 0
-353 886 0
-885 886 0
-353 -885 0
-354 887 0
-886 887 0
-354 -886 0
-355 888 0
-887 888 0
-355 -887 0
-356 889 0
-888 889 0
-356 -888 0
-367 890 0
-889 890 0
-367 -889 0
-368 891 0
-890 891 0
-368 -890 0
-369 892 0
-891 892 0
-369 -891 0
-370 893 0
-892 893 0
-370 -892 0
-371 894 0
-893 894 0
-371 -893 0
-372 895 0
-894 895 0
-372 -894 0
-374 896 0
-895 896 0
-374 -895 0
-375 897 0
-896 897 0
-375 -896 0
-376 898 0
-897 898 0
-376 -897 0
-377 899 0
-898 899 0
-377 -898 0
-378 900 0
-899 900 0
-378 -899 0
-379 901 0
-900 901 0
-379 -900 0
-380 902 0
-901 902 0
-380 -901 0
-381 903 0
-902 903 0
-381 -902 0
-383 904 0
-903 904 0
-383 -903 0
-384 905 0
-904 905 0
-384 -904 0
-385 906 0
-905 906 0
-385 -905 0
-386 907 0
-906 907 0
-386 -906 0
-387 908 0
-907 908 0
-387 -907 0
-388 909 0
-908 909 0
-388 -908 0
-389 910 0
-909 910 0
-389 -909 0
-390 911 0
-910 911 0
-390 -910 0
-391 912 0
-911 912 0
-391 -911 0
-392 913 0
-912 913 0
-392 -912 0
-394 914 0
-913 914 0
-394 -913 0
-395 915 0
-914 915 0
-395 -914 0
-396 916 0
-915 916 0
-396 -915 0
-397 917 0
-916 917 0
-397 -916 0
-398 -917 0
553 554 555 556 557 558 559 560 561 562 563 564 565 566 567 568 0
-553 918 0
-554 919 0
-918 919 0
-554 -918 0
-555 920 0
-919 920 0
-555 -919 0
-556 921 0
-920 921 0
-556 -920 0
-557 922 0
-921 922 0
-557 -921 0
-558 923 0
-922 923 0
-558 -922 0
-559 924 0
-923 924 0
-559 -923 0
-560 925 0
-924 925 0
-560 -924 0
-561 926 0
-925 926 0
-561 -925 0
-562 927 0
-926 927 0
-562 -926 0
-563 928 0
-927 928 0
-563 -927 0
-564 929 0
-928 929 0
-564 -928 0
-565 930 0
-929 930 0
-565 -929 0
-566 931 0
-930 931 0
-566 -930 0
-567 932 0
-931 932 0
-567 -931 0
-568 -932 0
585 586 587 588 589 590 591 592 593 594 595 596 597 598 599 600 0
-585 933 0
-586 934 0
-933 934 0
-586 -933 0
-587 935 0
-934 935 0
-587 -934 0
-588 936 0
-935 936 0
-588 -935 0
-589 937 0
-936 937 0
-589 -936 0
-590 938 0
-937 938 0
-590 -937 0
-591 939 0
-938 939 0
-591 -938 0
-592 940 0
-939 940 0
-592 -939 0
-593 941 0
-940 941 0
-593 -940 0
-594 942 0
-941 942 0
-594 -941 0
-595 943 0
-942 943 0
-595 -942 0
-596 944 0
-943 944 0
-596 -943 0
-597 945 0
-944 945 0
-597 -944 0
-598 946 0
-945 946 0
-598 -945 0
-599 947 0
-946 947 0
-599 -946 0
-600 -947 0
617 618 619 620 621 622 623 624 625 626 627 628 629 630 631 632 0
-617 948 0
-618 949 0
-948 949 0
-618 -948 0
-619 950 0
-949 950 0
-619 -949 0
-620 951 0
-950 951 0
-620 -950 0
-621 952 0
-951 952 0
-621 -951 0
-622 953 0
-952 953 0
-622 -952 0
-623 954 0
-953 954 0
-623 -953 0
-624 955 0
-954 955 0
-624 -954 0
-625 956 0
-955 956 0
-625 -955 0
-626 957 0
-956 957 0
-626 -956 0
-627 958 0
-957 958 0
-627 -957 0
-628 959 0
-958 959 0
-628 -958 0
-629 960 0
-959 960 0
-629 -959 0
-630 961 0
-960 961 0
-630 -960 0
-631 962 0
-961 962 0
-631 -961 0
-632 -962 0
649 650 651 652 653 654 655 656 657 658 659 660 661 662 663 664 0
-649 963 0
-650 964 0
-963 964 0
-650 -963 0
-651 965 0
-964 965 0
-651 -964 0
-652 966 0
-965 966 0
-652 -965 0
-653 967 0
-966 967 0
-653 -966 0
-654 968 0
-967 968 0
-654 -967 0
-655 969 0
-968 969 0
-655 -968 0
-656 970 0
-969 970 0
-656 -969 0
-657 971 0
-970 971 0
-657 -970 0
-658 972 0
-971 972 0
-658 -971 0
-659 973 0
-972 973 0
-659 -972 0
-660 974 0
-973 974 0
-660 -973 0
-661 975 0
-974 975 0
-661 -974 0
-662 976 0
-975 976 0
-662 -975 0
-663 977 0
-976 977 0
-663 -976 0
-664 -977 0
681 682 683 684 685 686 687 688 689 690 691 692 693 694 695 696 0
-681 978 0
-682 979 0
-978 979 0
-682 -978 0
-683 980 0
-979 980 0
-683 -979 0
-684 981 0
-980 981 0
-684 -980 0
-685 982 0
-981 982 0
-685 -981 0
-686 983 0
-982 983 0
-686 -982 0
-687 984 0
-983 984 0
-687 -983 0
-688 985 0
-984 985 0
-688 -984 0
-689 986 0
-985 986 0
-689 -985 0
-690 987 0
-986 987 0
-690 -986 0
-691 988 0
-987 988 0
-691 -987 0
-692 989 0
-988 989 0
-692 -988 0
-693 990 0
-989 990 0
-693 -989 0
-694 991 0
-990 991 0
-694 -990 0
-695 992 0
-991 992 0
-695 -991 0
-696 -992 0
713 714 715 716 717 718 719 720 721 722 723 724 725 726 727 728 0
-713 993 0
-714 994 0
-993 994 0
-714 -993 0
-715 995 0
-994 995 0
-715 -994 0
-716 996 0
-995 996 0
-716 -995 0
-717 997 0
-996 997 0
-717 -996 0
-718 998 0
-997 998 0
-718 -997 0
-719 999 0
-998 999 0
-719 -998 0
-720 1000 0
-999 1000 0
-720 -999 0
-721 1001 0
-1000 1001 0
-721 -1000 0
-722 1002 0
-1001 1002 0
-722 -1001 0
-723 1003 0
-1002 1003 0
-723 -1002 0
-724 1004 0
-1003 1004 0
-724 -1003 0
-725 1005 0
-1004 1005 0
-725 -1004 0
-726 1006 0
-1005 1006 0
-726 -1005 0
-727 1007 0
-1006 1007 0
-727 -1006 0
-728 -1007 0
745 746 747 748 749 750 751 752 753 754 755 756 757 758 759 760 0
-745 1008 0
-746 1009 0
-1008 1009 0
-746 -1008 0
-747 1010 0
-1009 1010 0
-747 -1009 0
-748 1011 0
-1010 1011 0
-748 -1010 0
-749 1012 0
-1011 1012 0
-749 -1011 0
-750 1013 0
-1012 1013 0
-750 -1012 0
-751 1014 0
-1013 1014 0
-751 -1013 0
-752 1015 0
-1014 1015 0
-752 -1014 0
-753 1016 0
-1015 1016 0
-753 -1015 0
-754 1017 0
-1016 1017 0
-754 -1016 0
-755 1018 0
-1017 1018 0
-755 -1017 0
-756 1019 0
-1018 1019 0
-756 -1018 0
-757 1020 0
-1019 1020 0
-757 -1019 0
-758 1021 0
-1020 1021 0
-758 -1020 0
-759 1022 0
-1021 1022 0
-759 -1021 0
-760 -1022 0
761 762 763 764 765 766 767 768 769 770 771 772 773 774 775 776 0
-761 1023 0
-762 1024 0
-1023 1024 0
-762 -1023 0
-763 1025 0
-1024 1025 0
-763 -1024 0
-764 1026 0
-1025 1026 0
-764 -1025 0
-765 1027 0
-1026 1027 0
-765 -1026 0
-766 1028 0
-1027 1028 0
-766 -1027 0
-767 1029 0
-1028 1029 0
-767 -1028 0
-768 1030 0
-1029 1030 0
-768 -1029 0
-769 1031 0
-1030 1031 0
-769 -1030 0
-770 1032 0
-1031 1032 0
-770 -1031 0
-771 1033 0
-1032 1033 0
-771 -1032 0
-772 1034 0
-1033 1034 0
-772 -1033 0
-773 1035 0
-1034 1035 0
-773 -1034 0
-774 1036 0
-1035 1036 0
-774 -1035 0
-775 1037 0
-1036 1037 0
-775 -1036 0
-776 -1037 0
729 730 731 732 733 734 735 736 737 738 739 740 741 742 743 744 0
-729 1038 0
-730 1039 0
-1038 1039 0
-730 -1038 0
-731 1040 0
-1039 1040 0
-731 -1039 0
-732 1041 0
-1040 1041 0
-732 -1040 0
-733 1042 0
-1041 1042 0
-733 -1041 0
-734 1043 0
-1042 1043 0
-734 -1042 0
-735 1044 0
-1043 1044 0
-735 -1043 0
-736 1045 0
-1044 1045 0
-736 -1044 0
-737 1046 0
-1045 1046 0
-737 -1045 0
-738 1047 0
-1046 1047 0
-738 -1046 0
-739 1048 0
-1047 1048 0
-739 -1047 0
-740 1049 0
-1048 1049 0
-740 -1048 0
-741 1050 0
-1049 1050 0
-741 -1049 0
-742 1051 0
-1050 1051 0
-742 -1050 0
-743 1052 0
-1051 1052 0
-743 -1051 0
-744 -1052 0
697 698 699 700 701 702 703 704 705 706 707 708 709 710 711 712 0
-697 1053 0
-698 1054 0
-1053 1054 0
-698 -1053 0
-699 1055 0
-1054 1055 0
-699 -1054 0
-700 1056 0
-1055 1056 0
-700 -1055 0
-701 1057 0
-1056 1057 0
-701 -1056 0
-702 1058 0
-1057 1058 0
-702 -1057 0
-703 1059 0
-1058 1059 0
-703 -1058 0
-704 1060 0
-1059 1060 0
-704 -1059 0
-705 1061 0
-1060 1061 0
-705 -1060 0
-706 1062 0
-1061 1062 0
-706 -1061 0
-707 1063 0
-1062 1063 0
-707 -1062 0
-708 1064 0
-1063 1064 0
-708 -1063 0
-709 1065 0
-1064 1065 0
-709 -1064 0
-710 1066 0
-1065 1066 0
-710 -1065 0
-711 1067 0
-1066 1067 0
-711 -1066 0
-712 -1067 0
665 666 667 668 669 670 671 672 673 674 675 676 677 678 679 680 0
-665 1068 0
-666 1069 0
-1068 1069 0
-666 -1068 0
-667 1070 0
-1069 1070 0
-667 -1069 0
-668 1071 0
-1070 1071 0
-668 -1070 0
-669 1072 0
-1071 1072 0
-669 -1071 0
-670 1073 0
-1072 1073 0
-670 -1072 0
-671 1074 0
-1073 1074 0
-671 -1073 0
-672 1075 0
-1074 1075 0
-672 -1074 0
-673 1076 0
-1075 1076 0
-673 -1075 0
-674 1077 0
-1076 1077 0
-674 -1076 0
-675 1078 0
-1077 1078 0
-675 -1077 0
-676 1079 0
-1078 1079 0
-676 -1078 0
-677 1080 0
-1079 1080 0
-677 -1079 0
-678 1081 0
-1080 1081 0
-678 -1080 0
-679 1082 0
-1081 1082 0
-679 -1081 0
-680 -1082 0
633 634 635 636 637 638 639 640 641 642 643 644 645 646 647 648 0
-633 1083 0
-634 1084 0
-1083 1084 0
-634 -1083 0
-635 1085 0
-1084 1085 0
-635 -1084 0
-636 1086 0
-1085 1086 0
-636 -1085 0
-637 1087 0
-1086 1087 0
-637 -1086 0
-638 1088 0
-1087 1088 0
-638 -1087 0
-639 1089 0
-1088 1089 0
-639 -1088 0
-640 1090 0
-1089 1090 0
-640 -1089 0
-641 1091 0
-1090 1091 0
-641 -1090 0
-642 1092 0
-1091 1092 0
-642 -1091 0
-643 1093 0
-1092 1093 0
-643 -1092 0
-644 1094 0
-1093 1094 0
-644 -1093 0
-645 1095 0
-1094 1095 0
-645 -1094 0
-646 1096 0
-1095 1096 0
-646 -1095 0
-647 1097 0
-1096 1097 0
-647 -1096 0
-648 -1097 0
601 602 603 604 605 606 607 608 609 610 611 612 613 614 615 616 0
-601 1098 0
-602 1099 0
-1098 1099 0
-602 -1098 0
-603 1100 0
-1099 1100 0
-603 -1099 0
-604 1101 0
-1100 1101 0
-604 -1100 0
-605 1102 0
-1101 1102 0
-605 -1101 0
-606 1103 0
-1102 1103 0
-606 -1102 0
-607 1104 0
-1103 1104 0
-607 -1103 0
-608 1105 0
-1104 1105 0
-608 -1104 0
-609 1106 0
-1105 1106 0
-609 -1105 0
-610 1107 0
-1106 1107 0
-610 -1106 0
-611 1108 0
-1107 1108 0
-611 -1107 0
-612 1109 0
-1108 1109 0
-612 -1108 0
-613 1110 0
-1109 1110 0
-613 -1109 0
-614 1111 0
-1110 1111 0
-614 -1110 0
-615 1112 0
-1111 1112 0
-615 -1111 0
-616 -1112 0
569 570 571 572 573 574 575 576 577 578 579 580 581 582 583 584 0
-569 1113 0
-570 1114 0
-1113 1114 0
-570 -1113 0
-571 1115 0
-1114 1115 0
-571 -1114 0
-572 1116 0
-1115 1116 0
-572 -1115 0
-573 1117 0
-1116 1117 0
-573 -1116 0
-574 1118 0
-1117 1118 0
-574 -1117 0
-575 1119 0
-1118 1119 0
-575 -1118 0
-576 1120 0
-1119 1120 0
-576 -1119 0
-577 1121 0
-1120 1121 0
-577 -1120 0
-578 1122 0
-1121 1122 0
-578 -1121 0
-579 1123 0
-1122 1123 0
-579 -1122 0
-580 1124 0
-1123 1124 0
-580 -1123 0
-581 1125 0
-1124 1125 0
-581 -1124 0
-582 1126 0
-1125 1126 0
-582 -1125 0
-583 1127 0
-1126 1127 0
-583 -1126 0
-584 -1127 0
399 400 401 402 403 405 406 407 408 410 411 412 413 415 416 417 418 420 421 422 423 424 425 426 427 428 429 430 431 432 433 434 435 436 437 438 439 440 441 442 443 444 445 446 447 448 449 450 0
-399 1128 0
-400 1129 0
-1128 1129 0
-400 -1128 0
-401 1130 0
-1129 1130 0
-401 -1129 0
-402 1131 0
-1130 1131 0
-402 -1130 0
-403 1132 0
-1131 1132 0
-403 -1131 0
-405 1133 0
-1132 1133 0
-405 -1132 0
-406 1134 0
-1133 1134 0
-406 -1133 0
-407 1135 0
-1134 1135 0
-407 -1134 0
-408 1136 0
-1135 1136 0
-408 -1135 0
-410 1137 0
-1136 1137 0
-410 -1136 0
-411 1138 0
-1137 1138 0
-411 -1137 0
-412 1139 0
-1138 1139 0
-412 -1138 0
-413 1140 0
-1139 1140 0
-413 -1139 0
-415 1141 0
-1140 1141 0
-415 -1140 0
-416 1142 0
-1141 1142 0
-416 -1141 0
-417 1143 0
-1142 1143 0
-417 -1142 0
-418 1144 0
-1143 1144 0
-418 -1143 0
-420 1145 0
-1144 1145 0
-420 -1144 0
-421 1146 0
-1145 1146 0
-421 -1145 0
-422 1147 0
-1146 1147 0
-422 -1146 0
-423 1148 0
-1147 1148 0
-423 -1147 0
-424 1149 0
-1148 1149 0
-424 -1148 0
-425 1150 0
-1149 1150 0
-425 -1149 0
-426 1151 0
-1150 1151 0
-426 -1150 0
-427 1152 0
-1151 1152 0
-427 -1151 0
-428 1153 0
-1152 1153 0
-428 -1152 0
-429 1154 0
-1153 1154 0
-429 -1153 0
-430 1155 0
-1154 1155 0
-430 -1154 0
-431 1156 0
-1155 1156 0
-431 -1155 0
-432 1157 0
-1156 1157 0
-432 -1156 0
-433 1158 0
-1157 1158 0
-433 -1157 0
-434 1159 0
-1158 1159 0
-434 -1158 0
-435 1160 0
-1159 1160 0
-435 -1159 0
-436 1161 0
-1160 1161 0
-436 -1160 0
-437 1162 0
-1161 1162 0
-437 -1161 0
-438 1163 0
-1162 1163 0
-438 -1162 0
-439 1164 0
-1163 1164 0
-439 -1163 0
-440 1165 0
-1164 1165 0
-440 -1164 0
-441 1166 0
-1165 1166 0
-441 -1165 0
-442 1167 0
-1166 1167 0
-442 -1166 0
-443 1168 0
-1167 1168 0
-443 -1167 0
-444 1169 0
-1168 1169 0
-444 -1168 0
-445 1170 0
-1169 1170 0
-445 -1169 0
-446 1171 0
-1170 1171 0
-446 -1170 0
-447 1172 0
-1171 1172 0
-447 -1171 0
-448 1173 0
-1172 1173 0
-448 -1172 0
-449 1174 0
-1173 1174 0
-449 -1173 0
-450 -1174 0
451 453 454 455 456 457 458 459 460 461 462 463 464 465 466 467 468 470 471 472 473 474 475 476 477 478 479 480 481 482 483 484 485 486 487 488 489 490 491 492 493 494 495 496 497 498 499 500 0
-451 1175 0
-453 1176 0
-1175 1176 0
-453 -1175 0
-454 1177 0
-1176 1177 0
-454 -1176 0
-455 1178 0
-1177 1178 0
-455 -1177 0
-456 1179 0
-1178 1179 0
-456 -1178 0
-457 1180 0
-1179 1180 0
-457 -1179 0
-458 1181 0
-1180 1181 0
-458 -1180 0
-459 1182 0
-1181 1182 0
-459 -1181 0
-460 1183 0
-1182 1183 0
-460 -1182 0
-461 1184 0
-1183 1184 0
-461 -1183 0
-462 1185 0
-1184 1185 0
-462 -1184 0
-463 1186 0
-1185 1186 0
-463 -1185 0
-464 1187 0
-1186 1187 0
-464 -1186 0
-465 1188 0
-1187 1188 0
-465 -1187 0
-466 1189 0
-1188 1189 0
-466 -1188 0
-467 1190 0
-1189 1190 0
-467 -1189 0
-468 1191 0
-1190 1191 0
-468 -1190 0
-470 1192 0
-1191 1192 0
-470 -1191 0
-471 1193 0
-1192 1193 0
-471 -1192 0
-472 1194 0
-1193 1194 0
-472 -1193 0
-473 1195 0
-1194 1195 0
-473 -1194 0
-474 1196 0
-1195 1196 0
-474 -1195 0
-475 1197 0
-1196 1197 0
-475 -1196 0
-476 1198 0
-1197 1198 0
-476 -1197 0
-477 1199 0
-1198 1199 0
-477 -1198 0
-478 1200 0
-1199 1200 0
-478 -1199 0
-479 1201 0
-1200 1201 0
-479 -1200 0
-480 1202 0
-1201 1202 0
-480 -1201 0
-481 1203 0
-1202 1203 0
-481 -1202 0
-482 1204 0
-1203 1204 0
-482 -1203 0
-483 1205 0
-1204 1205 0
-483 -1204 0
-484 1206 0
-1205 1206 0
-484 -1205 0
-485 1207 0
-1206 1207 0
-485 -1206 0
-486 1208 0
-1207 1208 0
-486 -1207 0
-487 1209 0
-1208 1209 0
-487 -1208 0
-488 1210 0
-1209 1210 0
-488 -1209 0
-489 1211 0
-1210 1211 0
-489 -1210 0
-490 1212 0
-1211 1212 0
-490 -1211 0
-491 1213 0
-1212 1213 0
-491 -1212 0
-492 1214 0
-1213 1214 0
-492 -1213 0
-493 1215 0
-1214 1215 0
-493 -1214 0
-494 1216 0
-1215 1216 0
-494 -1215 0
-495 1217 0
-1216 1217 0
-495 -1216 0
-496 1218 0
-1217 1218 0
-496 -1217 0
-497 1219 0
-1218 1219 0
-497 -1218 0
-498 1220 0
-1219 1220 0
-498 -1219 0
-499 1221 0
-1220 1221 0
-499 -1220 0
-500 -1221 0
501 503 504 505 506 507 508 509 510 512 513 515 516 517 518 519 520 521 522 524 525 526 527 528 529 530 531 532 533 534 535 536 537 538 539 540 541 542 543 544 545 546 547 548 549 550 551 552 0
-501 1222 0
-503 1223 0
-1222 1223 0
-503 -1222 0
-504 1224 0
-1223 1224 0
-504 -1223 0
-505 1225 0
-1224 1225 0
-505 -1224 0
-506 1226 0
-1225 1226 0
-506 -1225 0
-507 1227 0
-1226 1227 0
-507 -1226 0
-508 1228 0
-1227 1228 0
-508 -1227 0
-509 1229 0
-1228 1229 0
-509 -1228 0
-510 1230 0
-1229 1230 0
-510 -1229 0
-512 1231 0
-1230 1231 0
-512 -1230 0
-513 1232 0
-1231 1232 0
-513 -1231 0
-515 1233 0
-1232 1233 0
-515 -1232 0
-516 1234 0
-1233 1234 0
-516 -1233 0
-517 1235 0
-1234 1235 0
-517 -1234 0
-518 1236 0
-1235 1236 0
-518 -1235 0
-519 1237 0
-1236 1237 0
-519 -1236 0
-520 1238 0
-1237 1238 0
-520 -1237 0
-521 1239 0
-1238 1239 0
-521 -1238 0
-522 1240 0
-1239 1240 0
-522 -1239 0
-524 1241 0
-1240 1241 0
-524 -1240 0
-525 1242 0
-1241 1242 0
-525 -1241 0
-526 1243 0
-1242 1243 0
-526 -1242 0
-527 1244 0
-1243 1244 0
-527 -1243 0
-528 1245 0
-1244 1245 0
-528 -1244 0
-529 1246 0
-1245 1246 0
-529 -1245 0
-530 1247 0
-1246 1247 0
-530 -1246 0
-531 1248 0
-1247 1248 0
-531 -1247 0
-532 1249 0
-1248 1249 0
-532 -1248 0
-533 1250 0
-1249 1250 0
-533 -1249 0
-534 1251 0
-1250 1251 0
-534 -1250 0
-535 1252 0
-1251 1252 0
-535 -1251 0
-536 1253 0
-1252 1253 0
-536 -1252 0
-537 1254 0
-1253 1254 0
-537 -1253 0
-538 1255 0
-1254 1255 0
-538 -1254 0
-539 1256 0
-1255 1256 0
-539 -1255 0
-540 1257 0
-1256 1257 0
-540 -1256 0
-541 1258 0
-1257 1258 0
-541 -1257 0
-542 1259 0
-1258 1259 0
-542 -1258 0
-543 1260 0
-1259 1260 0
-543 -1259 0
-544 1261 0
-1260 1261 0
-544 -1260 0
-545 1262 0
-1261 1262 0
-545 -1261 0
-546 1263 0
-1262 1263 0
-546 -1262 0
-547 1264 0
-1263 1264 0
-547 -1263 0
-548 1265 0
-1264 1265 0
-548 -1264 0
-549 1266 0
-1265 1266 0
-549 -1265 0
-550 1267 0
-1266 1267 0
-550 -1266 0
-551 1268 0
-1267 1268 0
-551 -1267 0
-552 -1268 0
41 61 64 83 86 89 90 93 201 216 217 230 231 233 234 237 307 319 320 321 322 323 324 325 399 400 401 402 403 405 406 407 451 453 454 455 456 457 458 459 501 503 504 505 506 507 508 509 0
-41 1269 0
-61 1270 0
-1269 1270 0
-61 -1269 0
-64 1271 0
-1270 1271 0
-64 -1270 0
-83 1272 0
-1271 1272 0
-83 -1271 0
-86 1273 0
-1272 1273 0
-86 -1272 0
-89 1274 0
-1273 1274 0
-89 -1273 0
-90 1275 0
-1274 1275 0
-90 -1274 0
-93 1276 0
-1275 1276 0
-93 -1275 0
-201 1277 0
-1276 1277 0
-201 -1276 0
-216 1278 0
-1277 1278 0
-216 -1277 0
-217 1279 0
-1278 1279 0
-217 -1278 0
-230 1280 0
-1279 1280 0
-230 -1279 0
-231 1281 0
-1280 1281 0
-231 -1280 0
-233 1282 0
-1281 1282 0
-233 -1281 0
-234 1283 0
-1282 1283 0
-234 -1282 0
-237 1284 0
-1283 1284 0
-237 -1283 0
-307 1285 0
-1284 1285 0
-307 -1284 0
-319 1286 0
-1285 1286 0
-319 -1285 0
-320 1287 0
-1286 1287 0
-320 -1286 0
-321 1288 0
-1287 1288 0
-321 -1287 0
-322 1289 0
-1288 1289 0
-322 -1288 0
-323 1290 0
-1289 1290 0
-323 -1289 0
-324 1291 0
-1290 1291 0
-324 -1290 0
-325 1292 0
-1291 1292 0
-325 -1291 0
-399 1293 0
-1292 1293 0
-399 -1292 0
-400 1294 0
-1293 1294 0
-400 -1293 0
-401 1295 0
-1294 1295 0
-401 -1294 0
-402 1296 0
-1295 1296 0
-402 -1295 0
-403 1297 0
-1296 1297 0
-403 -1296 0
-405 1298 0
-1297 1298 0
-405 -1297 0
-406 1299 0
-1298 1299 0
-406 -1298 0
-407 1300 0
-1299 1300 0
-407 -1299 0
-451 1301 0
-1300 1301 0
-451 -1300 0
-453 1302 0
-1301 1302 0
-453 -1301 0
-454 1303 0
-1302 1303 0
-454 -1302 0
-455 1304 0
-1303 1304 0
-455 -1303 0
-456 1305 0
-1304 1305 0
-456 -1304 0
-457 1306 0
-1305 1306 0
-457 -1305 0
-458 1307 0
-1306 1307 0
-458 -1306 0
-459 1308 0
-1307 1308 0
-459 -1307 0
-501 1309 0
-1308 1309 0
-501 -1308 0
-503 1310 0
-1309 1310 0
-503 -1309 0
-504 1311 0
-1310 1311 0
-504 -1310 0
-505 1312 0
-1311 1312 0
-505 -1311 0
-506 1313 0
-1312 1313 0
-506 -1312 0
-507 1314 0
-1313 1314 0
-507 -1313 0
-508 1315 0
-1314 1315 0
-508 -1314 0
-509 -1315 0
94 111 114 130 131 132 133 136 238 240 241 242 243 245 246 247 326 337 338 349 350 351 352 353 408 410 411 412 413 415 416 417 460 461 462 463 464 465 466 467 510 512 513 515 516 517 518 519 0
-94 1316 0
-111 1317 0
-1316 1317 0
-111 -1316 0
-114 1318 0
-1317 1318 0
-114 -1317 0
-130 1319 0
-1318 1319 0
-130 -1318 0
-131 1320 0
-1319 1320 0
-131 -1319 0
-132 1321 0
-1320 1321 0
-132 -1320 0
-133 1322 0
-1321 1322 0
-133 -1321 0
-136 1323 0
-1322 1323 0
-136 -1322 0
-238 1324 0
-1323 1324 0
-238 -1323 0
-240 1325 0
-1324 1325 0
-240 -1324 0
-241 1326 0
-1325 1326 0
-241 -1325 0
-242 1327 0
-1326 1327 0
-242 -1326 0
-243 1328 0
-1327 1328 0
-243 -1327 0
-245 1329 0
-1328 1329 0
-245 -1328 0
-246 1330 0
-1329 1330 0
-246 -1329 0
-247 1331 0
-1330 1331 0
-247 -1330 0
-326 1332 0
-1331 1332 0
-326 -1331 0
-337 1333 0
-1332 1333 0
-337 -1332 0
-338 1334 0
-1333 1334 0
-338 -1333 0
-349 1335 0
-1334 1335 0
-349 -1334 0
-350 1336 0
-1335 1336 0
-350 -1335 0
-351 1337 0
-1336 1337 0
-351 -1336 0
-352 1338 0
-1337 1338 0
-352 -1337 0
-353 1339 0
-1338 1339 0
-353 -1338 0
-408 1340 0
-1339 1340 0
-408 -1339 0
-410 1341 0
-1340 1341 0
-410 -1340 0
-411 1342 0
-1341 1342 0
-411 -1341 0
-412 1343 0
-1342 1343 0
-412 -1342 0
-413 1344 0
-1343 1344 0
-413 -1343 0
-415 1345 0
-1344 1345 0
-415 -1344 0
-416 1346 0
-1345 1346 0
-416 -1345 0
-417 1347 0
-1346 1347 0
-417 -1346 0
-460 1348 0
-1347 1348 0
-460 -1347 0
-461 1349 0
-1348 1349 0
-461 -1348 0
-462 1350 0
-1349 1350 0
-462 -1349 0
-463 1351 0
-1350 1351 0
-463 -1350 0
-464 1352 0
-1351 1352 0
-464 -1351 0
-465 1353 0
-1352 1353 0
-465 -1352 0
-466 1354 0
-1353 1354 0
-466 -1353 0
-467 1355 0
-1354 1355 0
-467 -1354 0
-510 1356 0
-1355 1356 0
-510 -1355 0
-512 1357 0
-1356 1357 0
-512 -1356 0
-513 1358 0
-1357 1358 0
-513 -1357 0
-515 1359 0
-1358 1359 0
-515 -1358 0
-516 1360 0
-1359 1360 0
-516 -1359 0
-517 1361 0
-1360 1361 0
-517 -1360 0
-518 1362 0
-1361 1362 0
-518 -1361 0
-519 -1362 0
137 152 153 167 168 169 170 171 248 260 261 274 275 276 277 278 354 355 356 367 368 369 370 371 418 420 421 422 423 424 425 426 468 470 471 472 473 474 475 476 520 521 522 524 525 526 527 528 0
-137 1363 0
-152 1364 0
-1363 1364 0
-152 -1363 0
-153 1365 0
-1364 1365 0
-153 -1364 0
-167 1366 0
-1365 1366 0
-167 -1365 0
-168 1367 0
-1366 1367 0
-168 -1366 0
-169 1368 0
-1367 1368 0
-169 -1367 0
-170 1369 0
-1368 1369 0
-170 -1368 0
-171 1370 0
-1369 1370 0
-171 -1369 0
-248 1371 0
-1370 1371 0
-248 -1370 0
-260 1372 0
-1371 1372 0
-260 -1371 0
-261 1373 0
-1372 1373 0
-261 -1372 0
-274 1374 0
-1373 1374 0
-274 -1373 0
-275 1375 0
-1374 1375 0
-275 -1374 0
-276 1376 0
-1375 1376 0
-276 -1375 0
-277 1377 0
-1376 1377 0
-277 -1376 0
-278 1378 0
-1377 1378 0
-278 -1377 0
-354 1379 0
-1378 1379 0
-354 -1378 0
-355 1380 0
-1379 1380 0
-355 -1379 0
-356 1381 0
-1380 1381 0
-356 -1380 0
-367 1382 0
-1381 1382 0
-367 -1381 0
-368 1383 0
-1382 1383 0
-368 -1382 0
-369 1384 0
-1383 1384 0
-369 -1383 0
-370 1385 0
-1384 1385 0
-370 -1384 0
-371 1386 0
-1385 1386 0
-371 -1385 0
-418 1387 0
-1386 1387 0
-418 -1386 0
-420 1388 0
-1387 1388 0
-420 -1387 0
-421 1389 0
-1388 1389 0
-421 -1388 0
-422 1390 0
-1389 1390 0
-422 -1389 0
-423 1391 0
-1390 1391 0
-423 -1390 0
-424 1392 0
-1391 1392 0
-424 -1391 0
-425 1393 0
-1392 1393 0
-425 -1392 0
-426 1394 0
-1393 1394 0
-426 -1393 0
-468 1395 0
-1394 1395 0
-468 -1394 0
-470 1396 0
-1395 1396 0
-470 -1395 0
-471 1397 0
-1396 1397 0
-471 -1396 0
-472 1398 0
-1397 1398 0
-472 -1397 0
-473 1399 0
-1398 1399 0
-473 -1398 0
-474 1400 0
-1399 1400 0
-474 -1399 0
-475 1401 0
-1400 1401 0
-475 -1400 0
-476 1402 0
-1401 1402 0
-476 -1401 0
-520 1403 0
-1402 1403 0
-520 -1402 0
-521 1404 0
-1403 1404 0
-521 -1403 0
-522 1405 0
-1404 1405 0
-522 -1404 0
-524 1406 0
-1405 1406 0
-524 -1405 0
-525 1407 0
-1406 1407 0
-525 -1406 0
-526 1408 0
-1407 1408 0
-526 -1407 0
-527 1409 0
-1408 1409 0
-527 -1408 0
-528 -1409 0
553 554 555 556 557 558 559 560 569 570 571 572 573 574 575 576 0
-553 1410 0
-554 1411 0
-1410 1411 0
-554 -1410 0
-555 1412 0
-1411 1412 0
-555 -1411 0
-556 1413 0
-1412 1413 0
-556 -1412 0
-557 1414 0
-1413 1414 0
-557 -1413 0
-558 1415 0
-1414 1415 0
-558 -1414 0
-559 1416 0
-1415 1416 0
-559 -1415 0
-560 1417 0
-1416 1417 0
-560 -1416 0
-569 1418 0
-1417 1418 0
-569 -1417 0
-570 1419 0
-1418 1419 0
-570 -1418 0
-571 1420 0
-1419 1420 0
-571 -1419 0
-572 1421 0
-1420 1421 0
-572 -1420 0
-573 1422 0
-1421 1422 0
-573 -1421 0
-574 1423 0
-1422 1423 0
-574 -1422 0
-575 1424 0
-1423 1424 0
-575 -1423 0
-576 -1424 0
585 586 587 588 589 590 591 592 601 602 603 604 605 606 607 608 0
-585 1425 0
-586 1426 0
-1425 1426 0
-586 -1425 0
-587 1427 0
-1426 1427 0
-587 -1426 0
-588 1428 0
-1427 1428 0
-588 -1427 0
-589 1429 0
-1428 1429 0
-589 -1428 0
-590 1430 0
-1429 1430 0
-590 -1429 0
-591 1431 0
-1430 1431 0
-591 -1430 0
-592 1432 0
-1431 1432 0
-592 -1431 0
-601 1433 0
-1432 1433 0
-601 -1432 0
-602 1434 0
-1433 1434 0
-602 -1433 0
-603 1435 0
-1434 1435 0
-603 -1434 0
-604 1436 0
-1435 1436 0
-604 -1435 0
-605 1437 0
-1436 1437 0
-605 -1436 0
-606 1438 0
-1437 1438 0
-606 -1437 0
-607 1439 0
-1438 1439 0
-607 -1438 0
-608 -1439 0
617 618 619 620 621 622 623 624 633 634 635 636 637 638 639 640 0
-617 1440 0
-618 1441 0
-1440 1441 0
-618 -1440 0
-619 1442 0
-1441 1442 0
-619 -1441 0
-620 1443 0
-1442 1443 0
-620 -1442 0
-621 1444 0
-1443 1444 0
-621 -1443 0
-622 1445 0
-1444 1445 0
-622 -1444 0
-623 1446 0
-1445 1446 0
-623 -1445 0
-624 1447 0
-1446 1447 0
-624 -1446 0
-633 1448 0
-1447 1448 0
-633 -1447 0
-634 1449 0
-1448 1449 0
-634 -1448 0
-635 1450 0
-1449 1450 0
-635 -1449 0
-636 1451 0
-1450 1451 0
-636 -1450 0
-637 1452 0
-1451 1452 0
-637 -1451 0
-638 1453 0
-1452 1453 0
-638 -1452 0
-639 1454 0
-1453 1454 0
-639 -1453 0
-640 -1454 0
649 650 651 652 653 654 655 656 665 666 667 668 669 670 671 672 0
-649 1455 0
-650 1456 0
-1455 1456 0
-650 -1455 0
-651 1457 0
-1456 1457 0
-651 -1456 0
-652 1458 0
-1457 1458 0
-652 -1457 0
-653 1459 0
-1458 1459 0
-653 -1458 0
-654 1460 0
-1459 1460 0
-654 -1459 0
-655 1461 0
-1460 1461 0
-655 -1460 0
-656 1462 0
-1461 1462 0
-656 -1461 0
-665 1463 0
-1462 1463 0
-665 -1462 0
-666 1464 0
-1463 1464 0
-666 -1463 0
-667 1465 0
-1464 1465 0
-667 -1464 0
-668 1466 0
-1465 1466 0
-668 -1465 0
-669 1467 0
-1466 1467 0
-669 -1466 0
-670 1468 0
-1467 1468 0
-670 -1467 0
-671 1469 0
-1468 1469 0
-671 -1468 0
-672 -1469 0
681 682 683 684 685 686 687 688 697 698 699 700 701 702 703 704 0
-681 1470 0
-682 1471 0
-1470 1471 0
-682 -1470 0
-683 1472 0
-1471 1472 0
-683 -1471 0
-684 1473 0
-1472 1473 0
-684 -1472 0
-685 1474 0
-1473 1474 0
-685 -1473 0
-686 1475 0
-1474 1475 0
-686 -1474 0
-687 1476 0
-1475 1476 0
-687 -1475 0
-688 1477 0
-1476 1477 0
-688 -1476 0
-697 1478 0
-1477 1478 0
-697 -1477 0
-698 1479 0
-1478 1479 0
-698 -1478 0
-699 1480 0
-1479 1480 0
-699 -1479 0
-700 1481 0
-1480 1481 0
-700 -1480 0
-701 1482 0
-1481 1482 0
-701 -1481 0
-702 1483 0
-1482 1483 0
-702 -1482 0
-703 1484 0
-1483 1484 0
-703 -1483 0
-704 -1484 0
713 714 715 716 717 718 719 720 729 730 731 732 733 734 735 736 0
-713 1485 0
-714 1486 0
-1485 1486 0
-714 -1485 0
-715 1487 0
-1486 1487 0
-715 -1486 0
-716 1488 0
-1487 1488 0
-716 -1487 0
-717 1489 0
-1488 1489 0
-717 -1488 0
-718 1490 0
-1489 1490 0
-718 -1489 0
-719 1491 0
-1490 1491 0
-719 -1490 0
-720 1492 0
-1491 1492 0
-720 -1491 0
-729 1493 0
-1492 1493 0
-729 -1492 0
-730 1494 0
-1493 1494 0
-730 -1493 0
-731 1495 0
-1494 1495 0
-731 -1494 0
-732 1496 0
-1495 1496 0
-732 -1495 0
-733 1497 0
-1496 1497 0
-733 -1496 0
-734 1498 0
-1497 1498 0
-734 -1497 0
-735 1499 0
-1498 1499 0
-735 -1498 0
-736 -1499 0
745 746 747 748 749 750 751 752 761 762 763 764 765 766 767 768 0
-745 1500 0
-746 1501 0
-1500 1501 0
-746 -1500 0
-747 1502 0
-1501 1502 0
-747 -1501 0
-748 1503 0
-1502 1503 0
-748 -1502 0
-749 1504 0
-1503 1504 0
-749 -1503 0
-750 1505 0
-1504 1505 0
-750 -1504 0
-751 1506 0
-1505 1506 0
-751 -1505 0
-752 1507 0
-1506 1507 0
-752 -1506 0
-761 1508 0
-1507 1508 0
-761 -1507 0
-762 1509 0
-1508 1509 0
-762 -1508 0
-763 1510 0
-1509 1510 0
-763 -1509 0
-764 1511 0
-1510 1511 0
-764 -1510 0
-765 1512 0
-1511 1512 0
-765 -1511 0
-766 1513 0
-1512 1513 0
-766 -1512 0
-767 1514 0
-1513 1514 0
-767 -1513 0
-768 -1514 0
753 754 755 756 757 758 759 760 769 770 771 772 773 774 775 776 0
-753 1515 0
-754 1516 0
-1515 1516 0
-754 -1515 0
-755 1517 0
-1516 1517 0
-755 -1516 0
-756 1518 0
-1517 1518 0
-756 -1517 0
-757 1519 0
-1518 1519 0
-757 -1518 0
-758 1520 0
-1519 1520 0
-758 -1519 0
-759 1521 0
-1520 1521 0
-759 -1520 0
-760 1522 0
-1521 1522 0
-760 -1521 0
-769 1523 0
-1522 1523 0
-769 -1522 0
-770 1524 0
-1523 1524 0
-770 -1523 0
-771 1525 0
-1524 1525 0
-771 -1524 0
-772 1526 0
-1525 1526 0
-772 -1525 0
-773 1527 0
-1526 1527 0
-773 -1526 0
-774 1528 0
-1527 1528 0
-774 -1527 0
-775 1529 0
-1528 1529 0
-775 -1528 0
-776 -1529 0
721 722 723 724 725 726 727 728 737 738 739 740 741 742 743 744 0
-721 1530 0
-722 1531 0
-1530 1531 0
-722 -1530 0
-723 1532 0
-1531 1532 0
-723 -1531 0
-724 1533 0
-1532 1533 0
-724 -1532 0
-725 1534 0
-1533 1534 0
-725 -1533 0
-726 1535 0
-1534 1535 0
-726 -1534 0
-727 1536 0
-1535 1536 0
-727 -1535 0
-728 1537 0
-1536 1537 0
-728 -1536 0
-737 1538 0
-1537 1538 0
-737 -1537 0
-738 1539 0
-1538 1539 0
-738 -1538 0
-739 1540 0
-1539 1540 0
-739 -1539 0
-740 1541 0
-1540 1541 0
-740 -1540 0
-741 1542 0
-1541 1542 0
-741 -1541 0
-742 1543 0
-1542 1543 0
-742 -1542 0
-743 1544 0
-1543 1544 0
-743 -1543 0
-744 -1544 0
689 690 691 692 693 694 695 696 705 706 707 708 709 710 711 712 0
-689 1545 0
-690 1546 0
-1545 1546 0
-690 -1545 0
-691 1547 0
-1546 1547 0
-691 -1546 0
-692 1548 0
-1547 1548 0
-692 -1547 0
-693 1549 0
-1548 1549 0
-693 -1548 0
-694 1550 0
-1549 1550 0
-694 -1549 0
-695 1551 0
-1550 1551 0
-695 -1550 0
-696 1552 0
-1551 1552 0
-696 -1551 0
-705 1553 0
-1552 1553 0
-705 -1552 0
-706 1554 0
-1553 1554 0
-706 -1553 0
-707 1555 0
-1554 1555 0
-707 -1554 0
-708 1556 0
-1555 1556 0
-708 -1555 0
-709 1557 0
-1556 1557 0
-709 -1556 0
-710 1558 0
-1557 1558 0
-710 -1557 0
-711 1559 0
-1558 1559 0
-711 -1558 0
-712 -1559 0
657 658 659 660 661 662 663 664 673 674 675 676 677 678 679 680 0
-657 1560 0
-658 1561 0
-1560 1561 0
-658 -1560 0
-659 1562 0
-1561 1562 0
-659 -1561 0
-660 1563 0
-1562 1563 0
-660 -1562 0
-661 1564 0
-1563 1564 0
-661 -1563 0
-662 1565 0
-1564 1565 0
-662 -1564 0
-663 1566 0
-1565 1566 0
-663 -1565 0
-664 1567 0
-1566 1567 0
-664 -1566 0
-673 1568 0
-1567 1568 0
-673 -1567 0
-674 1569 0
-1568 1569 0
-674 -1568 0
-675 1570 0
-1569 1570 0
-675 -1569 0
-676 1571 0
-1570 1571 0
-676 -1570 0
-677 1572 0
-1571 1572 0
-677 -1571 0
-678 1573 0
-1572 1573 0
-678 -1572 0
-679 1574 0
-1573 1574 0
-679 -1573 0
-680 -1574 0
625 626 627 628 629 630 631 632 641 642 643 644 645 646 647 648 0
-625 1575 0
-626 1576 0
-1575 1576 0
-626 -1575 0
-627 1577 0
-1576 1577 0
-627 -1576 0
-628 1578 0
-1577 1578 0
-628 -1577 0
-629 1579 0
-1578 1579 0
-629 -1578 0
-630 1580 0
-1579 1580 0
-630 -1579 0
-631 1581 0
-1580 1581 0
-631 -1580 0
-632 1582 0
-1581 1582 0
-632 -1581 0
-641 1583 0
-1582 1583 0
-641 -1582 0
-642 1584 0
-1583 1584 0
-642 -1583 0
-643 1585 0
-1584 1585 0
-643 -1584 0
-644 1586 0
-1585 1586 0
-644 -1585 0
-645 1587 0
-1586 1587 0
-645 -1586 0
-646 1588 0
-1587 1588 0
-646 -1587 0
-647 1589 0
-1588 1589 0
-647 -1588 0
-648 -1589 0
593 594 595 596 597 598 599 600 609 610 611 612 613 614 615 616 0
-593 1590 0
-594 1591 0
-1590 1591 0
-594 -1590 0
-595 1592 0
-1591 1592 0
-595 -1591 0
-596 1593 0
-1592 1593 0
-596 -1592 0
-597 1594 0
-1593 1594 0
-597 -1593 0
-598 1595 0
-1594 1595 0
-598 -1594 0
-599 1596 0
-1595 1596 0
-599 -1595 0
-600 1597 0
-1596 1597 0
-600 -1596 0
-609 1598 0
-1597 1598 0
-609 -1597 0
-610 1599 0
-1598 1599 0
-610 -1598 0
-611 1600 0
-1599 1600 0
-611 -1599 0
-612 1601 0
-1600 1601 0
-612 -1600 0
-613 1602 0
-1601 1602 0
-613 -1601 0
-614 1603 0
-1602 1603 0
-614 -1602 0
-615 1604 0
-1603 1604 0
-615 -1603 0
-616 -1604 0
561 562 563 564 565 566 567 568 577 578 579 580 581 582 583 584 0
-561 1605 0
-562 1606 0
-1605 1606 0
-562 -1605 0
-563 1607 0
-1606 1607 0
-563 -1606 0
-564 1608 0
-1607 1608 0
-564 -1607 0
-565 1609 0
-1608 1609 0
-565 -1608 0
-566 1610 0
-1609 1610 0
-566 -1609 0
-567 1611 0
-1610 1611 0
-567 -1610 0
-568 1612 0
-1611 1612 0
-568 -1611 0
-577 1613 0
-1612 1613 0
-577 -1612 0
-578 1614 0
-1613 1614 0
-578 -1613 0
-579 1615 0
-1614 1615 0
-579 -1614 0
-580 1616 0
-1615 1616 0
-580 -1615 0
-581 1617 0
-1616 1617 0
-581 -1616 0
-582 1618 0
-1617 1618 0
-582 -1617 0
-583 1619 0
-1618 1619 0
-583 -1618 0
-584 -1619 0
172 174 175 177 178 179 180 181 279 281 282 284 285 286 287 288 372 374 375 376 377 378 379 380 427 428 429 430 431 432 433 434 477 478 479 480 481 482 483 484 529 530 531 532 533 534 535 536 0
-172 1620 0
-174 1621 0
-1620 1621 0
-174 -1620 0
-175 1622 0
-1621 1622 0
-175 -1621 0
-177 1623 0
-1622 1623 0
-177 -1622 0
-178 1624 0
-1623 1624 0
-178 -1623 0
-179 1625 0
-1624 1625 0
-179 -1624 0
-180 1626 0
-1625 1626 0
-180 -1625 0
-181 1627 0
-1626 1627 0
-181 -1626 0
-279 1628 0
-1627 1628 0
-279 -1627 0
-281 1629 0
-1628 1629 0
-281 -1628 0
-282 1630 0
-1629 1630 0
-282 -1629 0
-284 1631 0
-1630 1631 0
-284 -1630 0
-285 1632 0
-1631 1632 0
-285 -1631 0
-286 1633 0
-1632 1633 0
-286 -1632 0
-287 1634 0
-1633 1634 0
-287 -1633 0
-288 1635 0
-1634 1635 0
-288 -1634 0
-372 1636 0
-1635 1636 0
-372 -1635 0
-374 1637 0
-1636 1637 0
-374 -1636 0
-375 1638 0
-1637 1638 0
-375 -1637 0
-376 1639 0
-1638 1639 0
-376 -1638 0
-377 1640 0
-1639 1640 0
-377 -1639 0
-378 1641 0
-1640 1641 0
-378 -1640 0
-379 1642 0
-1641 1642 0
-379 -1641 0
-380 1643 0
-1642 1643 0
-380 -1642 0
-427 1644 0
-1643 1644 0
-427 -1643 0
-428 1645 0
-1644 1645 0
-428 -1644 0
-429 1646 0
-1645 1646 0
-429 -1645 0
-430 1647 0
-1646 1647 0
-430 -1646 0
-431 1648 0
-1647 1648 0
-431 -1647 0
-432 1649 0
-1648 1649 0
-432 -1648 0
-433 1650 0
-1649 1650 0
-433 -1649 0
-434 1651 0
-1650 1651 0
-434 -1650 0
-477 1652 0
-1651 1652 0
-477 -1651 0
-478 1653 0
-1652 1653 0
-478 -1652 0
-479 1654 0
-1653 1654 0
-479 -1653 0
-480 1655 0
-1654 1655 0
-480 -1654 0
-481 1656 0
-1655 1656 0
-481 -1655 0
-482 1657 0
-1656 1657 0
-482 -1656 0
-483 1658 0
-1657 1658 0
-483 -1657 0
-484 1659 0
-1658 1659 0
-484 -1658 0
-529 1660 0
-1659 1660 0
-529 -1659 0
-530 1661 0
-1660 1661 0
-530 -1660 0
-531 1662 0
-1661 1662 0
-531 -1661 0
-532 1663 0
-1662 1663 0
-532 -1662 0
-533 1664 0
-1663 1664 0
-533 -1663 0
-534 1665 0
-1664 1665 0
-534 -1664 0
-535 1666 0
-1665 1666 0
-535 -1665 0
-536 -1666 0
182 184 185 186 187 188 189 190 289 290 291 292 293 294 295 296 381 383 384 385 386 387 388 389 435 436 437 438 439 440 441 442 485 486 487 488 489 490 491 492 537 538 539 540 541 542 543 544 0
-182 1667 0
-184 1668 0
-1667 1668 0
-184 -1667 0
-185 1669 0
-1668 1669 0
-185 -1668 0
-186 1670 0
-1669 1670 0
-186 -1669 0
-187 1671 0
-1670 1671 0
-187 -1670 0
-188 1672 0
-1671 1672 0
-188 -1671 0
-189 1673 0
-1672 1673 0
-189 -1672 0
-190 1674 0
-1673 1674 0
-190 -1673 0
-289 1675 0
-1674 1675 0
-289 -1674 0
-290 1676 0
-1675 1676 0
-290 -1675 0
-291 1677 0
-1676 1677 0
-291 -1676 0
-292 1678 0
-1677 1678 0
-292 -1677 0
-293 1679 0
-1678 1679 0
-293 -1678 0
-294 1680 0
-1679 1680 0
-294 -1679 0
-295 1681 0
-1680 1681 0
-295 -1680 0
-296 1682 0
-1681 1682 0
-296 -1681 0
-381 1683 0
-1682 1683 0
-381 -1682 0
-383 1684 0
-1683 1684 0
-383 -1683 0
-384 1685 0
-1684 1685 0
-384 -1684 0
-385 1686 0
-1685 1686 0
-385 -1685 0
-386 1687 0
-1686 1687 0
-386 -1686 0
-387 1688 0
-1687 1688 0
-387 -1687 0
-388 1689 0
-1688 1689 0
-388 -1688 0
-389 1690 0
-1689 1690 0
-389 -1689 0
-435 1691 0
-1690 1691 0
-435 -1690 0
-436 1692 0
-1691 1692 0
-436 -1691 0
-437 1693 0
-1692 1693 0
-437 -1692 0
-438 1694 0
-1693 1694 0
-438 -1693 0
-439 1695 0
-1694 1695 0
-439 -1694 0
-440 1696 0
-1695 1696 0
-440 -1695 0
-441 1697 0
-1696 1697 0
-441 -1696 0
-442 1698 0
-1697 1698 0
-442 -1697 0
-485 1699 0
-1698 1699 0
-485 -1698 0
-486 1700 0
-1699 1700 0
-486 -1699 0
-487 1701 0
-1700 1701 0
-487 -1700 0
-488 1702 0
-1701 1702 0
-488 -1701 0
-489 1703 0
-1702 1703 0
-489 -1702 0
-490 1704 0
-1703 1704 0
-490 -1703 0
-491 1705 0
-1704 1705 0
-491 -1704 0
-492 1706 0
-1705 1706 0
-492 -1705 0
-537 1707 0
-1706 1707 0
-537 -1706 0
-538 1708 0
-1707 1708 0
-538 -1707 0
-539 1709 0
-1708 1709 0
-539 -1708 0
-540 1710 0
-1709 1710 0
-540 -1709 0
-541 1711 0
-1710 1711 0
-541 -1710 0
-542 1712 0
-1711 1712 0
-542 -1711 0
-543 1713 0
-1712 1713 0
-543 -1712 0
-544 -1713 0
191 193 194 196 197 198 199 200 297 299 300 302 303 304 305 306 390 391 392 394 395 396 397 398 443 444 445 446 447 448 449 450 493 494 495 496 497 498 499 500 545 546 547 548 549 550 551 552 0
-191 1714 0
-193 1715 0
-1714 1715 0
-193 -1714 0
-194 1716 0
-1715 1716 0
-194 -1715 0
-196 1717 0
-1716 1717 0
-196 -1716 0
-197 1718 0
-1717 1718 0
-197 -1717 0
-198 1719 0
-1718 1719 0
-198 -1718 0
-199 1720 0
-1719 1720 0
-199 -1719 0
-200 1721 0
-1720 1721 0
-200 -1720 0
-297 1722 0
-1721 1722 0
-297 -1721 0
-299 1723 0
-1722 1723 0
-299 -1722 0
-300 1724 0
-1723 1724 0
-300 -1723 0
-302 1725 0
-1724 1725 0
-302 -1724 0
-303 1726 0
-1725 1726 0
-303 -1725 0
-304 1727 0
-1726 1727 0
-304 -1726 0
-305 1728 0
-1727 1728 0
-305 -1727 0
-306 1729 0
-1728 1729 0
-306 -1728 0
-390 1730 0
-1729 1730 0
-390 -1729 0
-391 1731 0
-1730 1731 0
-391 -1730 0
-392 1732 0
-1731 1732 0
-392 -1731 0
-394 1733 0
-1732 1733 0
-394 -1732 0
-395 1734 0
-1733 1734 0
-395 -1733 0
-396 1735 0
-1734 1735 0
-396 -1734 0
-397 1736 0
-1735 1736 0
-397 -1735 0
-398 1737 0
-1736 1737 0
-398 -1736 0
-443 1738 0
-1737 1738 0
-443 -1737 0
-444 1739 0
-1738 1739 0
-444 -1738 0
-445 1740 0
-1739 1740 0
-445 -1739 0
-446 1741 0
-1740 1741 0
-446 -1740 0
-447 1742 0
-1741 1742 0
-447 -1741 0
-448 1743 0
-1742 1743 0
-448 -1742 0
-449 1744 0
-1743 1744 0
-449 -1743 0
-450 1745 0
-1744 1745 0
-450 -1744 0
-493 1746 0
-1745 1746 0
-493 -1745 0
-494 1747 0
-1746 1747 0
-494 -1746 0
-495 1748 0
-1747 1748 0
-495 -1747 0
-496 1749 0
-1748 1749 0
-496 -1748 0
-497 1750 0
-1749 1750 0
-497 -1749 0
-498 1751 0
-1750 1751 0
-498 -1750 0
-499 1752 0
-1751 1752 0
-499 -1751 0
-500 1753 0
-1752 1753 0
-500 -1752 0
-545 1754 0
-1753 1754 0
-545 -1753 0
-546 1755 0
-1754 1755 0
-546 -1754 0
-547 1756 0
-1755 1756 0
-547 -1755 0
-548 1757 0
-1756 1757 0
-548 -1756 0
-549 1758 0
-1757 1758 0
-549 -1757 0
-550 1759 0
-1758 1759 0
-550 -1758 0
-551 1760 0
-1759 1760 0
-551 -1759 0
-552 -1760 0
239 42 43 44 45 46 47 48 49 50 51 52 53 54 55 56 57 58 59 60 0
239 42 62 44 45 46 47 48 49 50 51 52 53 54 55 56 57 58 59 63 0
239 87 43 44 45 46 47 48 49 50 51 52 53 54 55 56 57 58 88 60 0
239 87 62 44 45 46 47 48 49 50 51 52 53 54 55 56 57 58 88 63 0
202 42 95 154 155 156 157 120 158 159 145 160 161 162 163 164 165 166 59 110 0
202 42 112 154 155 156 157 120 158 159 145 160 161 162 163 164 165 166 59 113 0
202 87 95 154 155 156 157 120 158 159 145 160 161 162 163 164 165 166 88 110 0
202 87 112 154 155 156 157 120 158 159 145 160 161 162 163 164 165 166 88 113 0
244 42 43 44 45 46 47 48 49 50 51 52 53 54 55 56 57 173 59 60 0
244 42 62 44 45 46 47 48 49 50 51 52 53 54 55 56 57 173 59 63 0
244 87 43 44 45 46 47 48 49 50 51 52 53 54 55 56 57 173 88 60 0
244 87 62 44 45 46 47 48 49 50 51 52 53 54 55 56 57 173 88 63 0
232 42 95 154 155 156 157 120 158 159 145 160 161 162 163 164 165 195 59 110 0
232 42 112 154 155 156 157 120 158 159 145 160 161 162 163 164 165 195 59 113 0
232 87 95 154 155 156 157 120 158 159 145 160 161 162 163 164 165 195 88 110 0
232 87 112 154 155 156 157 120 158 159 145 160 161 162 163 164 165 195 88 113 0
