p cnf 94 449
2 17 -32 0
-2 -17 -32 0
2 -17 32 0
-2 17 32 0
-31 -32 0
3 18 -33 0
-3 -18 -33 0
3 -18 33 0
-3 18 33 0
-31 -33 0
4 19 -34 0
-4 -19 -34 0
4 -19 34 0
-4 19 34 0
-31 -34 0
5 20 -35 0
-5 -20 -35 0
5 -20 35 0
-5 20 35 0
-31 -35 0
6 21 -36 0
-6 -21 -36 0
6 -21 36 0
-6 21 36 0
-31 -36 0
7 22 -37 0
-7 -22 -37 0
7 -22 37 0
-7 22 37 0
-31 -37 0
8 23 -38 0
-8 -23 -38 0
8 -23 38 0
-8 23 38 0
-31 -38 0
9 24 -39 0
-9 -24 -39 0
9 -24 39 0
-9 24 39 0
-31 -39 0
10 25 -40 0
-10 -25 -40 0
10 -25 40 0
-10 25 40 0
-31 -40 0
11 26 -41 0
-11 -26 -41 0
11 -26 41 0
-11 26 41 0
-31 -41 0
12 27 -42 0
-12 -27 -42 0
12 -27 42 0
-12 27 42 0
-31 -42 0
13 28 -43 0
-13 -28 -43 0
13 -28 43 0
-13 28 43 0
-31 -43 0
14 29 -44 0
-14 -29 -44 0
14 -29 44 0
-14 29 44 0
-31 -44 0
15 30 -45 0
-15 -30 -45 0
15 -30 45 0
-15 30 45 0
-31 -45 0
2 16 -47 0
-2 -16 -47 0
2 -16 47 0
-2 16 47 0
-46 -47 0
3 19 -48 0
-3 -19 -48 0
3 -19 48 0
-3 19 48 0
-46 -48 0
4 20 -49 0
-4 -20 -49 0
4 -20 49 0
-4 20 49 0
-46 -49 0
5 21 -50 0
-5 -21 -50 0
5 -21 50 0
-5 21 50 0
-46 -50 0
6 22 -51 0
-6 -22 -51 0
6 -22 51 0
-6 22 51 0
-46 -51 0
7 23 -52 0
-7 -23 -52 0
7 -23 52 0
-7 23 52 0
-46 -52 0
8 24 -53 0
-8 -24 -53 0
8 -24 53 0
-8 24 53 0
-46 -53 0
9 25 -54 0
-9 -25 -54 0
9 -25 54 0
-9 25 54 0
-46 -54 0
10 26 -55 0
-10 -26 -55 0
10 -26 55 0
-10 26 55 0
-46 -55 0
11 27 -56 0
-11 -27 -56 0
11 -27 56 0
-11 27 56 0
-46 -56 0
12 28 -57 0
-12 -28 -57 0
12 -28 57 0
-12 28 57 0
-46 -57 0
13 29 -58 0
-13 -29 -58 0
13 -29 58 0
-13 29 58 0
-46 -58 0
14 30 -59 0
-14 -30 -59 0
14 -30 59 0
-14 30 59 0
-46 -59 0
15 18 -60 0
-15 -18 -60 0
15 -18 60 0
-15 18 60 0
-46 -60 0
1 17 -62 0
-1 -17 -62 0
1 -17 62 0
-1 17 62 0
-61 -62 0
3 30 -63 0
-3 -30 -63 0
3 -30 63 0
-3 30 63 0
-61 -63 0
4 18 -64 0
-4 -18 -64 0
4 -18 64 0
-4 18 64 0
-61 -64 0
5 19 -65 0
-5 -19 -65 0
5 -19 65 0
-5 19 65 0
-61 -65 0
6 20 -66 0
-6 -20 -66 0
6 -20 66 0
-6 20 66 0
-61 -66 0
7 21 -67 0
-7 -21 -67 0
7 -21 67 0
-7 21 67 0
-61 -67 0
8 22 -68 0
-8 -22 -68 0
8 -22 68 0
-8 22 68 0
-61 -68 0
9 23 -69 0
-9 -23 -69 0
9 -23 69 0
-9 23 69 0
-61 -69 0
10 24 -70 0
-10 -24 -70 0
10 -24 70 0
-10 24 70 0
-61 -70 0
11 25 -71 0
-11 -25 -71 0
11 -25 71 0
-11 25 71 0
-61 -71 0
12 26 -72 0
-12 -26 -72 0
12 -26 72 0
-12 26 72 0
-61 -72 0
13 27 -73 0
-13 -27 -73 0
13 -27 73 0
-13 27 73 0
-61 -73 0
14 28 -74 0
-14 -28 -74 0
14 -28 74 0
-14 28 74 0
-61 -74 0
15 29 -75 0
-15 -29 -75 0
15 -29 75 0
-15 29 75 0
-61 -75 0
1 16 -77 0
-1 -16 -77 0
1 -16 77 0
-1 16 77 0
-76 -77 0
-76 -33 0
-76 -34 0
-76 -35 0
-76 -36 0
-76 -37 0
-76 -38 0
-76 -39 0
-76 -40 0
-76 -41 0
-76 -42 0
-76 -43 0
-76 -44 0
-76 -45 0
-78 -77 0
-78 -32 0
-78 -34 0
-78 -35 0
-78 -36 0
-78 -37 0
-78 -38 0
-78 -39 0
-78 -40 0
-78 -41 0
-78 -42 0
-78 -43 0
-78 -44 0
-78 -45 0
-79 -77 0
-79 -32 0
-79 -33 0
-79 -35 0
-79 -36 0
-79 -37 0
-79 -38 0
-79 -39 0
-79 -40 0
-79 -41 0
-79 -42 0
-79 -43 0
-79 -44 0
-79 -45 0
-80 -77 0
-80 -32 0
-80 -33 0
-80 -34 0
-80 -36 0
-80 -37 0
-80 -38 0
-80 -39 0
-80 -40 0
-80 -41 0
-80 -42 0
-80 -43 0
-80 -44 0
-80 -45 0
-81 -77 0
-81 -32 0
-81 -33 0
-81 -34 0
-81 -35 0
-81 -37 0
-81 -38 0
-81 -39 0
-81 -40 0
-81 -41 0
-81 -42 0
-81 -43 0
-81 -44 0
-81 -45 0
-82 -77 0
-82 -32 0
-82 -33 0
-82 -34 0
-82 -35 0
-82 -36 0
-82 -38 0
-82 -39 0
-82 -40 0
-82 -41 0
-82 -42 0
-82 -43 0
-82 -44 0
-82 -45 0
-83 -77 0
-83 -32 0
-83 -33 0
-83 -34 0
-83 -35 0
-83 -36 0
-83 -37 0
-83 -39 0
-83 -40 0
-83 -41 0
-83 -42 0
-83 -43 0
-83 -44 0
-83 -45 0
-84 -77 0
-84 -32 0
-84 -33 0
-84 -34 0
-84 -35 0
-84 -36 0
-84 -37 0
-84 -38 0
-84 -40 0
-84 -41 0
-84 -42 0
-84 -43 0
-84 -44 0
-84 -45 0
-85 -77 0
-85 -32 0
-85 -33 0
-85 -34 0
-85 -35 0
-85 -36 0
-85 -37 0
-85 -38 0
-85 -39 0
-85 -41 0
-85 -42 0
-85 -43 0
-85 -44 0
-85 -45 0
-86 -77 0
-86 -32 0
-86 -33 0
-86 -34 0
-86 -35 0
-86 -36 0
-86 -37 0
-86 -38 0
-86 -39 0
-86 -40 0
-86 -42 0
-86 -43 0
-86 -44 0
-86 -45 0
-87 -77 0
-87 -32 0
-87 -33 0
-87 -34 0
-87 -35 0
-87 -36 0
-87 -37 0
-87 -38 0
-87 -39 0
-87 -40 0
-87 -41 0
-87 -43 0
-87 -44 0
-87 -45 0
-88 -77 0
-88 -32 0
-88 -33 0
-88 -34 0
-88 -35 0
-88 -36 0
-88 -37 0
-88 -38 0
-88 -39 0
-88 -40 0
-88 -41 0
-88 -42 0
-88 -44 0
-88 -45 0
-89 -77 0
-89 -32 0
-89 -33 0
-89 -34 0
-89 -35 0
-89 -36 0
-89 -37 0
-89 -38 0
-89 -39 0
-89 -40 0
-89 -41 0
-89 -42 0
-89 -43 0
-89 -45 0
-90 -77 0
-90 -32 0
-90 -33 0
-90 -34 0
-90 -35 0
-90 -36 0
-90 -37 0
-90 -38 0
-90 -39 0
-90 -40 0
-90 -41 0
-90 -42 0
-90 -43 0
-90 -44 0
31 46 0
-31 91 0
-46 -91 0
61 76 0
-61 92 0
-76 -92 0
78 0
79 0
80 0
81 0
82 0
83 0
84 0
85 0
86 0
87 0
88 0
89 0
90 0
31 61 0
-31 93 0
-61 -93 0
46 76 0
-46 94 0
-76 -94 0
78 0
79 0
80 0
81 0
82 0
83 0
84 0
85 0
86 0
87 0
88 0
89 0
90 0
77 32 33 34 35 36 37 38 39 40 41 42 43 44 45 0
